56
Lattice="9.876 0.0 0.0 0.0 9.876 0.0 0.0 0.0 9.876" Properties=species:S:1:pos:R:3:spacegroup_kinds:I:1:initial_magmoms:R:1:forces:R:3 spacegroup="F d -3 m" unit_cell=conventional nspins=2 nkpts=6 fermi_level=9.0185 natoms=56 mineral=greigite rc=1.0 image_index=8 U_eV=0.0 nspin=2 source_file=results/dft_datasets/2026-05-27/w2_greigite_full_neb/greig_neb_full_s150/relaxed_endB.xyz method=PBE_U0_ONCV geometry=dft_relaxed spin_ordering=ferrimagnetic energy=-88090.59816106223 pbc="T T T"
Fe       1.21769251       1.21769251       1.20399405        0       5.00000000       0.00485836       0.00485836       0.00131718
Fe       6.17710510       1.26090984       6.14730864        0       5.00000000      -0.00661853      -0.00858774       0.00216873
Fe       1.26090984       6.17710510       6.14730864        0       5.00000000      -0.00858774      -0.00661853       0.00216873
Fe       6.16058087       6.16058087       1.22282728        0       5.00000000      -0.00332984      -0.00332984       0.00950125
Fe       8.64427005       3.71539243       3.70824055        0       5.00000000      -0.00124750      -0.00622490       0.00339617
Fe       8.65168680       8.65168680       8.65029605        0       5.00000000      -0.00251197      -0.00251197      -0.00197075
Fe       3.66618395       3.66618395       8.70348624        0       5.00000000       0.00195455       0.00195455       0.00020929
Fe       3.71539243       8.64427005       3.70824055        0       5.00000000      -0.00622490      -0.00124750       0.00339617
Fe       2.47685761       7.39454590       0.00580232        1      -4.00000000      -0.00744489       0.01028904       0.00323753
Fe       7.38897104       0.00626944       2.47259618        1      -4.00000000       0.00351007       0.00982136      -0.00703994
Fe       0.04457262       2.44136582       7.36136363        1      -4.00000000       0.00674015       0.00326119      -0.00648818
Fe       4.94605755      -0.01046626       0.01039044        1      -4.00000000       0.00191290      -0.00734873      -0.00688824
Fe       2.53212344       2.53212344       4.87046663        1      -4.00000000       0.00276316       0.00276316       0.01366001
Fe       7.52974541       4.91902822       7.34557753        1      -4.00000000       0.00878135      -0.00613157      -0.00310229
Fe       0.00626944       7.38897104       2.47259618        1      -4.00000000       0.00982136       0.00351007      -0.00703994
Fe      -0.01046626       4.94605755       0.01039044        1      -4.00000000      -0.00734873       0.00191290      -0.00688824
Fe       7.35920340       7.35920340       4.99669588        1      -4.00000000      -0.00761278      -0.00761278      -0.01021396
Fe       2.44136582       0.04457262       7.36136363        1      -4.00000000       0.00326119       0.00674015      -0.00648818
Fe       4.87655591       2.54807645       2.53290259        1      -4.00000000       0.01168155       0.00123516       0.00562814
Fe      -0.00090750      -0.00090750       4.92953196        1      -4.00000000      -0.00268192      -0.00268192      -0.01340547
Fe       7.39454590       2.47685761       0.00580232        1      -4.00000000       0.01028904      -0.00744489       0.00323753
Fe       2.54807645       4.87655591       2.53290259        1      -4.00000000       0.00123516       0.01168155       0.00562814
Fe       4.91902822       7.52974541       7.34557753        1      -4.00000000      -0.00613157       0.00878135      -0.00310229
S        2.48290512       2.48290512       2.47100387        2       0.00000000      -0.01674971      -0.01674971      -0.01415675
S        4.89737461       9.89834452       7.45993125        2       0.00000000      -0.01051993      -0.00558958       0.00873275
S        9.83653618       7.46551766       4.89340519        2       0.00000000      -0.00843142       0.00681162      -0.00301436
S        7.46030373       4.88916245       9.81792306        2       0.00000000      -0.00542246       0.00667844      -0.00589914
S        0.05192845       4.97581127       2.41107390        2       0.00000000       0.00628866       0.00184220       0.00033193
S        7.37822080       7.37822080       7.39635490        2       0.00000000       0.00649692       0.00649692       0.00463750
S        4.97476901       2.40440119       0.07530083        2       0.00000000       0.00379546      -0.00847667       0.01384770
S        2.41273826       0.05999949       4.96412338        2       0.00000000      -0.00313983       0.00191007      -0.01135039
S        2.50354831       7.48047169       7.44787309        2       0.00000000       0.00375458       0.00031470      -0.00016609
S        4.87227788       4.87227788       2.41310962        2       0.00000000       0.00659694       0.00659694       0.00071708
S        9.82736935       2.51146336       9.80613188        2       0.00000000       0.00879086       0.00228854      -0.00444749
S        7.46551766       9.83653618       4.89340519        2       0.00000000       0.00681162      -0.00843142      -0.00301436
S        0.04497292       0.04497292       7.36890461        2       0.00000000      -0.01010546      -0.01010546      -0.01010752
S        7.36029463       2.42832801       2.42364491        2       0.00000000      -0.00309689       0.00294134      -0.00239164
S        5.00799906       7.48626941       5.02728507        2       0.00000000       0.00176686      -0.00614571       0.00633880
S        2.40440119       4.97476901       0.07530083        2       0.00000000      -0.00847667       0.00379546       0.01384770
S        7.48047169       2.50354831       7.44787309        2       0.00000000       0.00031470       0.00375458      -0.00016609
S        9.82355364       9.82355364       2.49437964        2       0.00000000       0.00440224       0.00440224       0.00149278
S        4.88916245       7.46030373       9.81792306        2       0.00000000       0.00667844      -0.00542246      -0.00589914
S        2.42257020       4.86402873       4.85177267        2       0.00000000      -0.00648535       0.01223228       0.01509263
S        5.03559480       5.03559480       7.46286102        2       0.00000000      -0.00570399      -0.00570399       0.00314780
S        2.42832801       7.36029463       2.42364491        2       0.00000000       0.00294134      -0.00309689      -0.00239164
S        0.05999949       2.41273826       4.96412338        2       0.00000000       0.00191007      -0.00313983      -0.01135039
S        7.36928657       0.05121920       0.04260611        2       0.00000000      -0.00188539       0.00389574       0.00068340
S        7.45126745       7.45126745       2.51338290        2       0.00000000       0.00221038       0.00221038       0.00237107
S        9.89834452       4.89737461       7.45993125        2       0.00000000      -0.00558958      -0.01051993       0.00873275
S        4.86402873       2.42257020       4.85177267        2       0.00000000       0.01223228      -0.00648535       0.01509263
S        2.51146336       9.82736935       9.80613188        2       0.00000000       0.00228854       0.00879086      -0.00444749
S        4.97581127       0.05192845       2.41107390        2       0.00000000       0.00184220       0.00628866       0.00033193
S        2.44847606       2.44847606       7.34752018        2       0.00000000      -0.00382863      -0.00382863      -0.01065542
S        0.05121920       7.36928657       0.04260611        2       0.00000000       0.00389574      -0.00188539       0.00068340
S        7.48626941       5.00799906       5.02728507        2       0.00000000      -0.00614571       0.00176686       0.00633880
H        4.67234444       4.67234444       6.19689280        0       0.00000000       0.00549496       0.00549496       0.00611588
