56
Lattice="9.876 0.0 0.0 0.0 9.876 0.0 0.0 0.0 9.876" Properties=species:S:1:pos:R:3:spacegroup_kinds:I:1:initial_magmoms:R:1:forces:R:3 spacegroup="F d -3 m" unit_cell=conventional nspins=2 nkpts=6 fermi_level=9.0185 natoms=56 mineral=greigite rc=0.0 image_index=0 U_eV=0.0 nspin=2 source_file=results/dft_datasets/2026-05-27/w2_greigite_full_neb/greig_neb_full_s150/relaxed_endA.xyz method=PBE_U0_ONCV geometry=dft_relaxed spin_ordering=ferrimagnetic energy=-88090.59816160647 pbc="T T T"
Fe       1.22431348       1.22431348       1.22570310        0       5.00000000       0.00249371       0.00249371       0.00197384
Fe       6.16060855       1.23173453       6.16776262        0       5.00000000       0.00623595       0.00120945      -0.00341185
Fe       1.23173453       6.16060855       6.16776262        0       5.00000000       0.00120945       0.00623595      -0.00341185
Fe       6.20981653       6.20981653       1.17251187        0       5.00000000      -0.00194941      -0.00194941      -0.00019335
Fe       8.61508958       3.69889192       3.72868976        0       5.00000000       0.00858568       0.00661262      -0.00216204
Fe       8.65830584       8.65830584       8.67200777        0       5.00000000      -0.00486016      -0.00486016      -0.00134443
Fe       3.71541858       3.71541858       8.65317009        0       5.00000000       0.00331621       0.00331621      -0.00948017
Fe       3.69889192       8.61508958       3.72868976        0       5.00000000       0.00661262       0.00858568      -0.00216204
Fe       2.48145851       7.39914039      -0.00580272        1      -4.00000000      -0.01030961       0.00745157      -0.00323933
Fe       7.43463730      -0.04457479       2.51464282        1      -4.00000000      -0.00325553      -0.00673578       0.00648124
Fe      -0.00627026       2.48702697       7.40340128        1      -4.00000000      -0.00981159      -0.00350313       0.00705356
Fe       4.92994106       0.01047027      -0.01039108        1      -4.00000000      -0.00190519       0.00735207       0.00688387
Fe       2.51679859       2.51679859       4.87930150        1      -4.00000000       0.00760404       0.00760404       0.01018594
Fe       7.32792057       4.99944331       7.34309200        1      -4.00000000      -0.00122385      -0.01167255      -0.00561426
Fe      -0.04457479       7.43463730       2.51464282        1      -4.00000000      -0.00673578      -0.00325553       0.00648124
Fe       0.01047027       4.92994106      -0.01039108        1      -4.00000000       0.00735207      -0.00190519       0.00688387
Fe       7.34387227       7.34387227       5.00553920        1      -4.00000000      -0.00275777      -0.00275777      -0.01366284
Fe       2.48702697      -0.00627026       7.40340128        1      -4.00000000      -0.00350313      -0.00981159       0.00705356
Fe       4.95697261       2.34625109       2.53042604        1      -4.00000000       0.00612848      -0.00878546       0.00311463
Fe       0.00090608       0.00090608       4.94646780        1      -4.00000000       0.00267549       0.00267549       0.01340573
Fe       7.39914039       2.48145851      -0.00580272        1      -4.00000000       0.00745157      -0.01030961      -0.00323933
Fe       2.34625109       4.95697261       2.53042604        1      -4.00000000      -0.00878546       0.00612848       0.00311463
Fe       4.99944331       7.32792057       7.34309200        1      -4.00000000      -0.01167255      -0.00122385      -0.00561426
S        2.49777646       2.49777646       2.47963911        2       0.00000000      -0.00644396      -0.00644396      -0.00456859
S        4.90019068       9.82407231       7.46492381        2       0.00000000      -0.00187151      -0.00630434      -0.00030159
S        9.81600263       7.46325918       4.91188228        2       0.00000000      -0.00193655       0.00316863       0.01132134
S        7.47159873       4.90123353       9.80069982        2       0.00000000       0.00850161      -0.00381629      -0.01387419
S       -0.02234687       4.97862303       2.41606888        2       0.00000000       0.00561040       0.01055206      -0.00874792
S        7.39309564       7.39309564       7.40499930        2       0.00000000       0.01671063       0.01671063       0.01411973
S        4.98683406       2.41570106       0.05807696        2       0.00000000      -0.00663885       0.00538620       0.00591457
S        2.41048200       0.03946227       4.98259070        2       0.00000000      -0.00683425       0.00845970       0.00304856
S        2.51570650       7.44766857       7.45235357        2       0.00000000       0.00312312      -0.00289198       0.00243998
S        4.84040461       4.84040461       2.41313755        2       0.00000000       0.00571505       0.00571505      -0.00310615
S        9.82478295       2.50671105       9.83339790        2       0.00000000      -0.00393379       0.00193527      -0.00074973
S        7.46325918       9.81600263       4.91188228        2       0.00000000       0.00316863      -0.00193655       0.01132134
S        0.05244149       0.05244149       7.38162390        2       0.00000000      -0.00435519      -0.00435519      -0.00153366
S        7.37245249       2.39552973       2.42812763        2       0.00000000      -0.00378749      -0.00035533       0.00014372
S        5.01196944       7.45343604       5.02422454        2       0.00000000      -0.01220708       0.00645450      -0.01507695
S        2.41570106       4.98683406       0.05807696        2       0.00000000       0.00538620      -0.00663885       0.00591457
S        7.44766857       2.51570650       7.45235357        2       0.00000000      -0.00289198       0.00312312       0.00243998
S        9.83103081       9.83103081       2.50709314        2       0.00000000       0.01006073       0.01006073       0.01014943
S        4.90123353       7.47159873       9.80069982        2       0.00000000      -0.00381629       0.00850161      -0.01387419
S        2.38972364       4.86800092       4.84871692        2       0.00000000       0.00617322      -0.00178589      -0.00638713
S        5.00372013       5.00372013       7.46288957        2       0.00000000      -0.00656608      -0.00656608      -0.00072942
S        2.39552973       7.37245249       2.42812763        2       0.00000000      -0.00035533      -0.00378749       0.00014372
S        0.03946227       2.41048200       4.98259070        2       0.00000000       0.00845970      -0.00683425       0.00304856
S        7.36454051       0.04862874       0.06986860        2       0.00000000      -0.00233122      -0.00874844       0.00448940
S        7.42752307       7.42752307       2.52848360        2       0.00000000       0.00383557       0.00383557       0.01065877
S        9.82407231       4.90019068       7.46492381        2       0.00000000      -0.00630434      -0.00187151      -0.00030159
S        4.86800092       2.38972364       4.84871692        2       0.00000000      -0.00178589       0.00617322      -0.00638713
S        2.50671105       9.82478295       9.83339790        2       0.00000000       0.00193527      -0.00393379      -0.00074973
S        4.97862303      -0.02234687       2.41606888        2       0.00000000       0.01055206       0.00561040      -0.00874792
S        2.42473492       2.42473492       7.36261450        2       0.00000000      -0.00225280      -0.00225280      -0.00238470
S        0.04862874       7.36454051       0.06986860        2       0.00000000      -0.00874844      -0.00233122       0.00448940
S        7.45343604       5.01196944       5.02422454        2       0.00000000       0.00645450      -0.01220708      -0.01507695
H        5.20366820       5.20366820       3.67909946        0       0.00000000      -0.00552093      -0.00552093      -0.00614159
