56
Lattice="9.876 0.0 0.0 0.0 9.876 0.0 0.0 0.0 9.876" Properties=species:S:1:pos:R:3:initial_magmoms:R:1:forces:R:3 spacegroup="F d -3 m" unit_cell=conventional mineral=greigite rc=0.0 image_index=0 U_eV=0.0 nspin=2 source_file=results/dft_datasets/2026-05-27/w2_greigite_full_neb/greig_neb_full_s150/neb.traj method=PBE_U0_ONCV energy=-88090.59816160647 pbc="T T T"
Fe       1.22431348       1.22431348       1.22570310       5.00000000       0.00249371       0.00249371       0.00197384
Fe       6.16060855       1.23173453       6.16776262       5.00000000       0.00623595       0.00120945      -0.00341185
Fe       1.23173453       6.16060855       6.16776262       5.00000000       0.00120945       0.00623595      -0.00341185
Fe       6.20981653       6.20981653       1.17251187       5.00000000      -0.00194941      -0.00194941      -0.00019335
Fe       8.61508958       3.69889192       3.72868976       5.00000000       0.00858568       0.00661262      -0.00216204
Fe       8.65830584       8.65830584       8.67200777       5.00000000      -0.00486016      -0.00486016      -0.00134443
Fe       3.71541858       3.71541858       8.65317009       5.00000000       0.00331621       0.00331621      -0.00948017
Fe       3.69889192       8.61508958       3.72868976       5.00000000       0.00661262       0.00858568      -0.00216204
Fe       2.48145851       7.39914039      -0.00580272      -4.00000000      -0.01030961       0.00745157      -0.00323933
Fe       7.43463730      -0.04457479       2.51464282      -4.00000000      -0.00325553      -0.00673578       0.00648124
Fe      -0.00627026       2.48702697       7.40340128      -4.00000000      -0.00981159      -0.00350313       0.00705356
Fe       4.92994106       0.01047027      -0.01039108      -4.00000000      -0.00190519       0.00735207       0.00688387
Fe       2.51679859       2.51679859       4.87930150      -4.00000000       0.00760404       0.00760404       0.01018594
Fe       7.32792057       4.99944331       7.34309200      -4.00000000      -0.00122385      -0.01167255      -0.00561426
Fe      -0.04457479       7.43463730       2.51464282      -4.00000000      -0.00673578      -0.00325553       0.00648124
Fe       0.01047027       4.92994106      -0.01039108      -4.00000000       0.00735207      -0.00190519       0.00688387
Fe       7.34387227       7.34387227       5.00553920      -4.00000000      -0.00275777      -0.00275777      -0.01366284
Fe       2.48702697      -0.00627026       7.40340128      -4.00000000      -0.00350313      -0.00981159       0.00705356
Fe       4.95697261       2.34625109       2.53042604      -4.00000000       0.00612848      -0.00878546       0.00311463
Fe       0.00090608       0.00090608       4.94646780      -4.00000000       0.00267549       0.00267549       0.01340573
Fe       7.39914039       2.48145851      -0.00580272      -4.00000000       0.00745157      -0.01030961      -0.00323933
Fe       2.34625109       4.95697261       2.53042604      -4.00000000      -0.00878546       0.00612848       0.00311463
Fe       4.99944331       7.32792057       7.34309200      -4.00000000      -0.01167255      -0.00122385      -0.00561426
S        2.49777646       2.49777646       2.47963911       0.00000000      -0.00644396      -0.00644396      -0.00456859
S        4.90019068       9.82407231       7.46492381       0.00000000      -0.00187151      -0.00630434      -0.00030159
S        9.81600263       7.46325918       4.91188228       0.00000000      -0.00193655       0.00316863       0.01132134
S        7.47159873       4.90123353       9.80069982       0.00000000       0.00850161      -0.00381629      -0.01387419
S       -0.02234687       4.97862303       2.41606888       0.00000000       0.00561040       0.01055206      -0.00874792
S        7.39309564       7.39309564       7.40499930       0.00000000       0.01671063       0.01671063       0.01411973
S        4.98683406       2.41570106       0.05807696       0.00000000      -0.00663885       0.00538620       0.00591457
S        2.41048200       0.03946227       4.98259070       0.00000000      -0.00683425       0.00845970       0.00304856
S        2.51570650       7.44766857       7.45235357       0.00000000       0.00312312      -0.00289198       0.00243998
S        4.84040461       4.84040461       2.41313755       0.00000000       0.00571505       0.00571505      -0.00310615
S        9.82478295       2.50671105       9.83339790       0.00000000      -0.00393379       0.00193527      -0.00074973
S        7.46325918       9.81600263       4.91188228       0.00000000       0.00316863      -0.00193655       0.01132134
S        0.05244149       0.05244149       7.38162390       0.00000000      -0.00435519      -0.00435519      -0.00153366
S        7.37245249       2.39552973       2.42812763       0.00000000      -0.00378749      -0.00035533       0.00014372
S        5.01196944       7.45343604       5.02422454       0.00000000      -0.01220708       0.00645450      -0.01507695
S        2.41570106       4.98683406       0.05807696       0.00000000       0.00538620      -0.00663885       0.00591457
S        7.44766857       2.51570650       7.45235357       0.00000000      -0.00289198       0.00312312       0.00243998
S        9.83103081       9.83103081       2.50709314       0.00000000       0.01006073       0.01006073       0.01014943
S        4.90123353       7.47159873       9.80069982       0.00000000      -0.00381629       0.00850161      -0.01387419
S        2.38972364       4.86800092       4.84871692       0.00000000       0.00617322      -0.00178589      -0.00638713
S        5.00372013       5.00372013       7.46288957       0.00000000      -0.00656608      -0.00656608      -0.00072942
S        2.39552973       7.37245249       2.42812763       0.00000000      -0.00035533      -0.00378749       0.00014372
S        0.03946227       2.41048200       4.98259070       0.00000000       0.00845970      -0.00683425       0.00304856
S        7.36454051       0.04862874       0.06986860       0.00000000      -0.00233122      -0.00874844       0.00448940
S        7.42752307       7.42752307       2.52848360       0.00000000       0.00383557       0.00383557       0.01065877
S        9.82407231       4.90019068       7.46492381       0.00000000      -0.00630434      -0.00187151      -0.00030159
S        4.86800092       2.38972364       4.84871692       0.00000000      -0.00178589       0.00617322      -0.00638713
S        2.50671105       9.82478295       9.83339790       0.00000000       0.00193527      -0.00393379      -0.00074973
S        4.97862303      -0.02234687       2.41606888       0.00000000       0.01055206       0.00561040      -0.00874792
S        2.42473492       2.42473492       7.36261450       0.00000000      -0.00225280      -0.00225280      -0.00238470
S        0.04862874       7.36454051       0.06986860       0.00000000      -0.00874844      -0.00233122       0.00448940
S        7.45343604       5.01196944       5.02422454       0.00000000       0.00645450      -0.01220708      -0.01507695
H        5.20366820       5.20366820       3.67909946       0.00000000      -0.00552093      -0.00552093      -0.00614159
56
Lattice="9.876 0.0 0.0 0.0 9.876 0.0 0.0 0.0 9.876" Properties=species:S:1:pos:R:3:initial_magmoms:R:1:forces:R:3 spacegroup="F d -3 m" unit_cell=conventional mineral=greigite rc=0.125 image_index=1 U_eV=0.0 nspin=2 source_file=results/dft_datasets/2026-05-27/w2_greigite_full_neb/greig_neb_full_s150/neb.traj method=PBE_U0_ONCV energy=-88090.49891515877 pbc="T T T"
Fe       1.22086414       1.22086414       1.21753959       5.00000000      -0.00199209      -0.00199209       0.00076465
Fe       6.16548142       1.23341240       6.17216919       5.00000000       0.00784109      -0.01427759       0.02444014
Fe       1.23341240       6.16548142       6.17216919       5.00000000      -0.01427759       0.00784109       0.02444014
Fe       6.17934759       6.17934759       1.25743828       5.00000000       0.04306264       0.04306264      -0.03626181
Fe       8.62460421       3.70600802       3.72461935       5.00000000      -0.00163394      -0.01018131       0.01078398
Fe       8.65627754       8.65627754       8.66874574       5.00000000       0.00682088       0.00682088       0.01441875
Fe       3.72609134       3.72609134       8.65094122       5.00000000      -0.00969409      -0.00969409       0.03057479
Fe       3.70600802       8.62460421       3.72461935       5.00000000      -0.01018131      -0.00163394       0.01078398
Fe       2.48598340       7.39826915       0.00179799      -4.00000000       0.01085905       0.00011853       0.00731376
Fe       7.42499691      -0.02768735       2.50585826      -4.00000000       0.01149257       0.00098730       0.01371169
Fe       0.00989462       2.47569149       7.39081188      -4.00000000      -0.00281150       0.00217850       0.00389522
Fe       4.93500080       0.00511215      -0.00215702      -4.00000000      -0.00222838       0.00107318       0.00098910
Fe       2.52214910       2.52214910       4.88057271      -4.00000000      -0.00410888      -0.00410888       0.00025043
Fe       7.34599627       4.98450041       7.35965064      -4.00000000      -0.01489877       0.00971620       0.01326381
Fe      -0.02768735       7.42499691       2.50585826      -4.00000000       0.00098730       0.01149257       0.01371169
Fe       0.00511215       4.93500080      -0.00215702      -4.00000000       0.00107318      -0.00222838       0.00098910
Fe       7.34771170       7.34771170       5.00315715      -4.00000000      -0.00556438      -0.00556438       0.01490289
Fe       2.47569149       0.00989462       7.39081188      -4.00000000       0.00217850      -0.00281150       0.00389522
Fe       4.92879044       2.38343227       2.54493528      -4.00000000       0.01197980      -0.08446100       0.03608646
Fe       0.00159105       0.00159105       4.94197095      -4.00000000      -0.00157609      -0.00157609       0.00240527
Fe       7.39826915       2.48598340       0.00179799      -4.00000000       0.00011853       0.01085905       0.00731376
Fe       2.38343227       4.92879044       2.54493528      -4.00000000      -0.08446100       0.01197980       0.03608646
Fe       4.98450041       7.34599627       7.35965064      -4.00000000       0.00971620      -0.01489877       0.01326381
S        2.48885161       2.48885161       2.47589429       0.00000000      -0.00442975      -0.00442975       0.01207467
S        4.89591129       9.83377823       7.46981780       0.00000000       0.00444055      -0.01033712       0.01840190
S        9.82155502       7.46562133       4.90983454       0.00000000       0.00143108       0.00471489       0.01181268
S        7.45413514       4.90801190       9.83687688       0.00000000       0.00655760       0.00162262       0.00599684
S        0.00527391       4.97863829       2.42060944       0.00000000      -0.03132452      -0.00337972       0.00416236
S        7.39087543       7.39087543       7.40538453       0.00000000       0.00327893       0.00327893       0.01871583
S        4.98663171       2.43538178       0.07754946       0.00000000       0.00615265      -0.00898189       0.01618098
S        2.41171315       0.04785817       4.97581267       0.00000000      -0.00166685      -0.00304187       0.00772694
S        2.51601358       7.45557525       7.45502186       0.00000000       0.00573356      -0.00687693       0.01416909
S        4.84890810       4.84890810       2.61487669       0.00000000      -0.01712355      -0.01712355      -0.20219901
S        9.82379160       2.50979103       9.82693391       0.00000000      -0.00420581       0.00168253       0.00880243
S        7.46562133       9.82155502       4.90983454       0.00000000       0.00471489       0.00143108       0.01181268
S        0.04856057       0.04856057       7.37656070       0.00000000       0.00364068       0.00364068       0.00821030
S        7.37027069       2.40247381       2.43266750       0.00000000       0.00109503      -0.00168176       0.01288791
S        5.01405383       7.46804728       5.03021368       0.00000000       0.00523399       0.03381721       0.01504378
S        2.43538178       4.98663171       0.07754946       0.00000000      -0.00898189       0.00615265       0.01618098
S        7.45557525       2.51601358       7.45502186       0.00000000      -0.00687693       0.00573356       0.01416909
S        9.82939239       9.82939239       2.50398960       0.00000000       0.00095414       0.00095414      -0.00099656
S        4.90801190       7.45413514       9.83687688       0.00000000       0.00162262       0.00655760       0.00599684
S        2.38913665       4.86469043       4.86639171       0.00000000      -0.04040180       0.00009642       0.00918398
S        5.01379999       5.01379999       7.45937745       0.00000000      -0.01253927      -0.01253927       0.01926733
S        2.40247381       7.37027069       2.43266750       0.00000000      -0.00168176       0.00109503       0.01288791
S        0.04785817       2.41171315       4.97581267       0.00000000      -0.00304187      -0.00166685       0.00772694
S        7.36316321       0.04689918       0.06481721       0.00000000      -0.00150718       0.00244820       0.01285757
S        7.43476961       7.43476961       2.54213654       0.00000000       0.00032962       0.00032962       0.02699941
S        9.83377823       4.89591129       7.46981780       0.00000000      -0.01033712       0.00444055       0.01840190
S        4.86469043       2.38913665       4.86639171       0.00000000       0.00009642      -0.04040180       0.00918398
S        2.50979103       9.82379160       9.82693391       0.00000000       0.00168253      -0.00420581       0.00880243
S        4.97863829       0.00527391       2.42060944       0.00000000      -0.00337972      -0.03132452       0.00416236
S        2.43344433       2.43344433       7.36448433       0.00000000      -0.00237544      -0.00237544       0.00809332
S        0.04689918       7.36316321       0.06481721       0.00000000       0.00244820      -0.00150718       0.01285757
S        7.46804728       5.01405383       5.03021368       0.00000000       0.03381721       0.00523399       0.01504378
H        5.07958600       5.07958600       3.95452166       0.00000000       0.11394229       0.11394229      -0.41264123
56
Lattice="9.876 0.0 0.0 0.0 9.876 0.0 0.0 0.0 9.876" Properties=species:S:1:pos:R:3:initial_magmoms:R:1:forces:R:3 spacegroup="F d -3 m" unit_cell=conventional mineral=greigite rc=0.25 image_index=2 U_eV=0.0 nspin=2 source_file=results/dft_datasets/2026-05-27/w2_greigite_full_neb/greig_neb_full_s150/neb.traj method=PBE_U0_ONCV energy=-88089.99507339289 pbc="T T T"
Fe       1.21889916       1.21889916       1.21350054       5.00000000      -0.00446678      -0.00446678       0.00039286
Fe       6.16050396       1.24577521       6.16309802       5.00000000       0.01730558      -0.04265512       0.04106592
Fe       1.24577521       6.16050396       6.16309802       5.00000000      -0.04265512       0.01730558       0.04106592
Fe       6.15357123       6.15357123       1.28797694       5.00000000       0.06347205       0.06347205       0.10253945
Fe       8.62345521       3.71698926       3.72296825       5.00000000       0.02127588      -0.01440101       0.00008459
Fe       8.65679358       8.65679358       8.66434871       5.00000000       0.00561349       0.00561349       0.01384256
Fe       3.73241463       3.73241463       8.63324877       5.00000000      -0.00221578      -0.00221578       0.03592397
Fe       3.71698926       8.62345521       3.72296825       5.00000000      -0.01440101       0.02127588       0.00008459
Fe       2.48628383       7.39573314       0.00113215      -4.00000000       0.01374332       0.00879240       0.00439607
Fe       7.41111165      -0.02018861       2.49667594      -4.00000000       0.01843095       0.01359779       0.01248502
Fe       0.01797684       2.47150095       7.38244214      -4.00000000      -0.01854048       0.00979205       0.00577984
Fe       4.93863813       0.00076146       0.00372867      -4.00000000      -0.00011493       0.00282076       0.00814114
Fe       2.52415231       2.52415231       4.88282055      -4.00000000       0.01387522       0.01387522       0.01271719
Fe       7.36115547       4.97828220       7.36270342      -4.00000000      -0.04842981       0.01983658       0.00249834
Fe      -0.02018861       7.41111165       2.49667594      -4.00000000       0.01359779       0.01843095       0.01248502
Fe       0.00076146       4.93863813       0.00372867      -4.00000000       0.00282076      -0.00011493       0.00814114
Fe       7.35141396       7.35141396       4.99942744      -4.00000000      -0.02303400      -0.02303400       0.01579532
Fe       2.47150095       0.01797684       7.38244214      -4.00000000       0.00979205      -0.01854048       0.00577984
Fe       4.90652686       2.45049111       2.53396565      -4.00000000       0.01968128      -0.20624850       0.08925250
Fe      -0.00005913      -0.00005913       4.93677287      -4.00000000       0.00120173       0.00120173      -0.00621461
Fe       7.39573314       2.48628383       0.00113215      -4.00000000       0.00879240       0.01374332       0.00439607
Fe       2.45049111       4.90652686       2.53396565      -4.00000000      -0.20624850       0.01968128       0.08925250
Fe       4.97828220       7.36115547       7.36270342      -4.00000000       0.01983658      -0.04842981       0.00249834
S        2.48603337       2.48603337       2.47329889       0.00000000      -0.00161568      -0.00161568      -0.00604775
S        4.89502714       9.83715590       7.46232871       0.00000000       0.00004422      -0.00056436       0.03100313
S        9.82347587       7.45948720       4.90510080       0.00000000       0.00188308       0.00893870       0.00598681
S        7.44776842       4.90479582       9.84331840       0.00000000      -0.02479906       0.02890691       0.04702368
S        0.03251641       4.97758118       2.42481982       0.00000000      -0.03721209      -0.01123546       0.01208521
S        7.39028619       7.39028619       7.40177425       0.00000000       0.00316708       0.00316708       0.01610822
S        4.98281038       2.43731199       0.06906100       0.00000000       0.01419995       0.05417212       0.07541791
S        2.41701570       0.05088150       4.97073356       0.00000000      -0.00738035      -0.00213067       0.00431020
S        2.51550982       7.45925417       7.45158226       0.00000000       0.01198443      -0.00681574       0.01259738
S        4.87072361       4.87072361       2.79630537       0.00000000       0.04475931       0.04475931       0.93383547
S        9.82525444       2.51151298       9.82065352       0.00000000      -0.00697540       0.00394304       0.00904180
S        7.45948720       9.82347587       4.90510080       0.00000000       0.00893870       0.00188308       0.00598681
S        0.04812949       0.04812949       7.36987109       0.00000000       0.00345916       0.00345916       0.00816171
S        7.36387902       2.41203125       2.43008036       0.00000000       0.00516123      -0.01015200       0.01125063
S        5.01246203       7.43799611       5.02571819       0.00000000       0.01206310       0.19915328       0.03784432
S        2.43731199       4.98281038       0.06906100       0.00000000       0.05417212       0.01419995       0.07541791
S        7.45925417       2.51550982       7.45158226       0.00000000      -0.00681574       0.01198443       0.01259738
S        9.82575124       9.82575124       2.50461364       0.00000000      -0.00513141      -0.00513141      -0.01261743
S        4.90479582       7.44776842       9.84331840       0.00000000       0.02890691      -0.02479906       0.04702368
S        2.42974147       4.86598007       4.87179361       0.00000000      -0.21879008      -0.01368058       0.05483752
S        5.01680840       5.01680840       7.42641290       0.00000000      -0.01607737      -0.01607737       0.09989327
S        2.41203125       7.36387902       2.43008036       0.00000000      -0.01015200       0.00516123       0.01125063
S        0.05088150       2.41701570       4.97073356       0.00000000      -0.00213067      -0.00738035       0.00431020
S        7.36347198       0.04814407       0.05910993       0.00000000      -0.00809949      -0.00091711       0.00840416
S        7.43628641       7.43628641       2.53369227       0.00000000       0.00466321       0.00466321       0.06253103
S        9.83715590       4.89502714       7.46232871       0.00000000      -0.00056436       0.00004422       0.03100313
S        4.86598007       2.42974147       4.87179361       0.00000000      -0.01368058      -0.21879008       0.05483752
S        2.51151298       9.82525444       9.82065352       0.00000000       0.00394304      -0.00697540       0.00904180
S        4.97758118       0.03251641       2.42481982       0.00000000      -0.01123546      -0.03721209       0.01208521
S        2.43692397       2.43692397       7.35867474       0.00000000      -0.00677769      -0.00677769       0.00709547
S        0.04814407       7.36347198       0.05910993       0.00000000      -0.00091711      -0.00809949       0.00840416
S        7.43799611       5.01246203       5.02571819       0.00000000       0.19915328       0.01206310       0.03784432
H        4.97220774       4.97220774       4.31354441       0.00000000       0.11252330       0.11252330      -2.23096910
56
Lattice="9.876 0.0 0.0 0.0 9.876 0.0 0.0 0.0 9.876" Properties=species:S:1:pos:R:3:initial_magmoms:R:1:forces:R:3 spacegroup="F d -3 m" unit_cell=conventional mineral=greigite rc=0.375 image_index=3 U_eV=0.0 nspin=2 source_file=results/dft_datasets/2026-05-27/w2_greigite_full_neb/greig_neb_full_s150/neb.traj method=PBE_U0_ONCV energy=-88089.01770456723 pbc="T T T"
Fe       1.21959595       1.21959595       1.21352210       5.00000000      -0.00547002      -0.00547002      -0.00020852
Fe       6.15808391       1.25207911       6.15727218       5.00000000       0.00415593      -0.01912232       0.02163532
Fe       1.25207911       6.15808391       6.15727218       5.00000000      -0.01912232       0.00415593       0.02163532
Fe       6.14552985       6.14552985       1.27053109       5.00000000       0.00905645       0.00905645       0.10409548
Fe       8.62024978       3.71874865       3.72295447       5.00000000       0.00451331      -0.00178872       0.00106804
Fe       8.65607864       8.65607864       8.66267776       5.00000000       0.00590351       0.00590351       0.00338177
Fe       3.73239021       3.73239021       8.62812949       5.00000000       0.00707465       0.00707465       0.00635320
Fe       3.71874865       8.62024978       3.72295447       5.00000000      -0.00178872       0.00451331       0.00106804
Fe       2.48417023       7.39440619       0.00044363      -4.00000000       0.01501858      -0.00109812       0.00068443
Fe       7.40840475      -0.02194127       2.49523752      -4.00000000       0.00626038       0.00639073       0.01137687
Fe       0.02011995       2.47049793       7.38188052      -4.00000000      -0.01625040       0.01186975      -0.00108835
Fe       4.93854196       0.00052297       0.00232022      -4.00000000       0.00243638       0.00402532       0.01245288
Fe       2.52215868       2.52215868       4.88077174      -4.00000000       0.01683841       0.01683841       0.01715131
Fe       7.36799301       4.97567345       7.36161158      -4.00000000      -0.05271353       0.02353562      -0.00447321
Fe      -0.02194127       7.40840475       2.49523752      -4.00000000       0.00639073       0.00626038       0.01137687
Fe       0.00052297       4.93854196       0.00232022      -4.00000000       0.00402532       0.00243638       0.01245288
Fe       7.35475649       7.35475649       4.99770268      -4.00000000      -0.01526695      -0.01526695       0.00527693
Fe       2.47049793       0.02011995       7.38188052      -4.00000000       0.01186975      -0.01625040      -0.00108835
Fe       4.90390887       2.47970917       2.52066573      -4.00000000       0.00087443      -0.10679386       0.03412625
Fe      -0.00035339      -0.00035339       4.93773369      -4.00000000      -0.00254231      -0.00254231      -0.00190904
Fe       7.39440619       2.48417023       0.00044363      -4.00000000      -0.00109812       0.01501858       0.00068443
Fe       2.47970917       4.90390887       2.52066573      -4.00000000      -0.10679386       0.00087443       0.03412625
Fe       4.97567345       7.36799301       7.36161158      -4.00000000       0.02353562      -0.05271353      -0.00447321
S        2.48612183       2.48612183       2.47446582       0.00000000      -0.00148918      -0.00148918      -0.00749219
S        4.89522541       9.83717821       7.45784232       0.00000000       0.00150538      -0.00902894       0.01094673
S        9.82316605       7.45829354       4.90457858       0.00000000      -0.00672421      -0.00416647       0.00119839
S        7.45186932       4.90073727       9.83539324       0.00000000      -0.01638693       0.01450385       0.03009656
S        0.03738706       4.97918494       2.42281536       0.00000000      -0.00022446      -0.00880114       0.01443109
S        7.38999699       7.38999699       7.39967598       0.00000000       0.00233379       0.00233379       0.00367359
S        4.98044595       2.42871822       0.05771895       0.00000000       0.01231147       0.03989529       0.05078134
S        2.41790263       0.05103624       4.97026196       0.00000000       0.00477942      -0.00317274      -0.00336763
S        2.51389049       7.46005604       7.44974816       0.00000000       0.01019160      -0.01224308       0.00598527
S        4.86422711       4.86422711       2.65558202       0.00000000       0.04868538       0.04868538       0.85815505
S        9.82616387       2.51080709       9.81950765       0.00000000      -0.00524017       0.00695612       0.00467529
S        7.45829354       9.82316605       4.90457858       0.00000000      -0.00416647      -0.00672421       0.00119839
S        0.04767907       0.04767907       7.36889882       0.00000000       0.00374250       0.00374250       0.00286678
S        7.36305140       2.41354880       2.42843499       0.00000000      -0.00482879      -0.00066874       0.00708930
S        5.01064515       7.40845531       5.01981659       0.00000000       0.00540934       0.08529121       0.01144681
S        2.42871822       4.98044595       0.05771895       0.00000000       0.03989529       0.01231147       0.05078134
S        7.46005604       2.51389049       7.44974816       0.00000000      -0.01224308       0.01019160       0.00598527
S        9.82662091       9.82662091       2.50659599       0.00000000      -0.01076110      -0.01076110      -0.00454880
S        4.90073727       7.45186932       9.83539324       0.00000000       0.01450385      -0.01638693       0.03009656
S        2.46217386       4.86811356       4.86318413       0.00000000      -0.09409081       0.01278944       0.02620957
S        5.01871827       5.01871827       7.41200535       0.00000000      -0.02340835      -0.02340835       0.10355272
S        2.41354880       7.36305140       2.42843499       0.00000000      -0.00066874      -0.00482879       0.00708930
S        0.05103624       2.41790263       4.97026196       0.00000000      -0.00317274       0.00477942      -0.00336763
S        7.36478110       0.04844760       0.05811241       0.00000000      -0.00985144      -0.00148893       0.00609429
S        7.43569455       7.43569455       2.52447839       0.00000000      -0.00492135      -0.00492135       0.04415690
S        9.83717821       4.89522541       7.45784232       0.00000000      -0.00902894       0.00150538       0.01094673
S        4.86811356       2.46217386       4.86318413       0.00000000       0.01278944      -0.09409081       0.02620957
S        2.51080709       9.82616387       9.81950765       0.00000000       0.00695612      -0.00524017       0.00467529
S        4.97918494       0.03738706       2.42281536       0.00000000      -0.00880114      -0.00022446       0.01443109
S        2.43762816       2.43762816       7.35769765       0.00000000      -0.00973368      -0.00973368      -0.00739501
S        0.04844760       7.36478110       0.05811241       0.00000000      -0.00148893      -0.00985144       0.00609429
S        7.40845531       5.01064515       5.01981659       0.00000000       0.08529121       0.00540934       0.01144681
H        4.95691735       4.95691735       4.63761698       0.00000000       0.08192923       0.08192923      -1.60984919
56
Lattice="9.876 0.0 0.0 0.0 9.876 0.0 0.0 0.0 9.876" Properties=species:S:1:pos:R:3:initial_magmoms:R:1:forces:R:3 spacegroup="F d -3 m" unit_cell=conventional mineral=greigite rc=0.5 image_index=4 U_eV=0.0 nspin=2 source_file=results/dft_datasets/2026-05-27/w2_greigite_full_neb/greig_neb_full_s150/neb.traj method=PBE_U0_ONCV energy=-88088.7374279937 pbc="T T T"
Fe       1.21957234       1.21957234       1.21347632       5.00000000      -0.00612874      -0.00612874      -0.00129532
Fe       6.15618185       1.25713212       6.15340846       5.00000000      -0.00400964       0.00579681       0.00162622
Fe       1.25713212       6.15618185       6.15340846       5.00000000       0.00579681      -0.00400964       0.00162622
Fe       6.14485920       6.14485920       1.25313501       5.00000000       0.00158534       0.00158534       0.01863793
Fe       8.61886986       3.71981714       3.72259235       5.00000000      -0.00579681       0.00400964      -0.00162622
Fe       8.65642698       8.65642698       8.66252418       5.00000000       0.00612874       0.00612874       0.00129532
Fe       3.73114080       3.73114080       8.62286271       5.00000000      -0.00158534      -0.00158534      -0.01863793
Fe       3.71981714       8.61886986       3.72259235       5.00000000       0.00400964      -0.00579681      -0.00162622
Fe       2.48306464       7.39293657      -0.00000020      -4.00000000       0.00878237      -0.00878237       0.00000000
Fe       7.40569140      -0.02083797       2.49461989      -4.00000000      -0.00944829       0.01269122       0.00612977
Fe       0.02083644       2.47030921       7.38138210      -4.00000000      -0.01269122       0.00944829      -0.00612977
Fe       4.93799930       0.00000201      -0.00000033      -4.00000000       0.00000000       0.00000000       0.00000000
Fe       2.51925167       2.51925167       4.87865108      -4.00000000       0.00506919       0.00506919       0.00155603
Fe       7.37431443       4.97492745       7.36152258      -4.00000000      -0.01583414       0.01646920      -0.00486967
Fe      -0.02083797       7.40569140       2.49461989      -4.00000000       0.01269122      -0.00944829       0.00612977
Fe       0.00000201       4.93799930      -0.00000033      -4.00000000       0.00000000       0.00000000       0.00000000
Fe       7.35674718       7.35674718       4.99735053      -4.00000000      -0.00506919      -0.00506919      -0.00155603
Fe       2.47030921       0.02083644       7.38138210      -4.00000000       0.00944829      -0.01269122      -0.00612977
Fe       4.90107264       2.50168214       2.51447650      -4.00000000      -0.01646920       0.01583414       0.00486967
Fe      -0.00000071      -0.00000071       4.93799989      -4.00000000       0.00000000       0.00000000       0.00000000
Fe       7.39293657       2.48306464      -0.00000020      -4.00000000      -0.00878237       0.00878237       0.00000000
Fe       2.50168214       4.90107264       2.51447650      -4.00000000       0.01583414      -0.01646920       0.00486967
Fe       4.97492745       7.37431443       7.36152258      -4.00000000       0.01646920      -0.01583414      -0.00486967
S        2.48549945       2.48549945       2.47628606       0.00000000      -0.00300228      -0.00300228       0.00101713
S        4.89605193       9.83571412       7.45454738       0.00000000       0.00414462      -0.01516617      -0.00588140
S        9.82416228       7.45660153       4.90511813       0.00000000      -0.00245283      -0.01185381       0.00127964
S        7.45413663       4.89759212       9.82890130       0.00000000      -0.00438707      -0.00250734      -0.00238084
S        0.04028502       4.97994787       2.42145155       0.00000000       0.01516617      -0.00414462       0.00588140
S        7.39049957       7.39049957       7.39971253       0.00000000       0.00300228       0.00300228      -0.00101713
S        4.97840742       2.42186573       0.04709903       0.00000000       0.00250734       0.00438707       0.00238084
S        2.41939701       0.05183798       4.97088265       0.00000000       0.01185381       0.00245283      -0.00127964
S        2.51390331       7.45994863       7.44836237       0.00000000       0.01014583      -0.01117581      -0.00088934
S        4.85572471       4.85572471       2.49196511       0.00000000       0.01308152       0.01308152       0.03365831
S        9.82676664       2.51037651       9.81845957       0.00000000      -0.00332649       0.00609789      -0.00284775
S        7.45660153       9.82416228       4.90511813       0.00000000      -0.01185381      -0.00245283       0.00127964
S        0.04822517       0.04822517       7.36742561       0.00000000       0.00613054       0.00613054      -0.00639613
S        7.36209766       2.41605035       2.42763724       0.00000000      -0.01014583       0.01117581       0.00088934
S        5.00975869       7.38862635       5.01583778       0.00000000      -0.00148353      -0.02815409      -0.00806427
S        2.42186573       4.97840742       0.04709903       0.00000000       0.00438707       0.00250734       0.00238084
S        7.45994863       2.51390331       7.44836237       0.00000000      -0.01117581       0.01014583      -0.00088934
S        9.82777426       9.82777426       2.50857505       0.00000000      -0.00613054      -0.00613054       0.00639613
S        4.89759212       7.45413663       9.82890130       0.00000000      -0.00250734      -0.00438707      -0.00238084
S        2.48737325       4.86624039       4.86016181       0.00000000       0.02815409       0.00148353       0.00806427
S        5.02027399       5.02027399       7.38403403       0.00000000      -0.01308152      -0.01308152      -0.03365831
S        2.41605035       7.36209766       2.42763724       0.00000000       0.01117581      -0.01014583       0.00088934
S        0.05183798       2.41939701       4.97088265       0.00000000       0.00245283       0.01185381      -0.00127964
S        7.36562423       0.04923347       0.05754270       0.00000000      -0.00609789       0.00332649       0.00284775
S        7.43792260       7.43792260       2.51972860       0.00000000       0.00884280       0.00884280       0.01700502
S        9.83571412       4.89605193       7.45454738       0.00000000      -0.01516617       0.00414462      -0.00588140
S        4.86624039       2.48737325       4.86016181       0.00000000       0.00148353       0.02815409       0.00806427
S        2.51037651       9.82676664       9.81845957       0.00000000       0.00609789      -0.00332649      -0.00284775
S        4.97994787       0.04028502       2.42145155       0.00000000      -0.00414462       0.01516617       0.00588140
S        2.43807813       2.43807813       7.35627201       0.00000000      -0.00884280      -0.00884280      -0.01700502
S        0.04923347       7.36562423       0.05754270       0.00000000       0.00332649      -0.00609789       0.00284775
S        7.38862635       5.00975869       5.01583778       0.00000000      -0.02815409      -0.00148353      -0.00806427
H        4.93800657       4.93800657       4.93799481       0.00000000       0.00000000       0.00000000       0.00000000
56
Lattice="9.876 0.0 0.0 0.0 9.876 0.0 0.0 0.0 9.876" Properties=species:S:1:pos:R:3:initial_magmoms:R:1:forces:R:3 spacegroup="F d -3 m" unit_cell=conventional mineral=greigite rc=0.625 image_index=5 U_eV=0.0 nspin=2 source_file=results/dft_datasets/2026-05-27/w2_greigite_full_neb/greig_neb_full_s150/neb.traj method=PBE_U0_ONCV energy=-88089.0177027985 pbc="T T T"
Fe       1.21992081       1.21992081       1.21332334       5.00000000      -0.00594516      -0.00594516      -0.00325219
Fe       6.15724970       1.25575045       6.15304530       5.00000000       0.00170104      -0.00464367      -0.00146219
Fe       1.25575045       6.15724970       6.15304530       5.00000000      -0.00464367       0.00170104      -0.00146219
Fe       6.14360893       6.14360893       1.24786985       5.00000000      -0.00715538      -0.00715538      -0.00648149
Fe       8.62392198       3.71791614       3.71872870       5.00000000       0.01916243      -0.00394510      -0.02139389
Fe       8.65640270       8.65640270       8.66247813       5.00000000       0.00542374       0.00542374       0.00017355
Fe       3.73047223       3.73047223       8.60546617       5.00000000      -0.00856254      -0.00856254      -0.10406540
Fe       3.71791614       8.62392198       3.71872870       5.00000000      -0.00394510       0.01916243      -0.02139389
Fe       2.48159492       7.39183081      -0.00044432      -4.00000000       0.00103410      -0.01498465      -0.00077056
Fe       7.40550237      -0.02012144       2.49412124      -4.00000000      -0.01180213       0.01627508       0.00100042
Fe       0.02193995       2.46759673       7.38076465      -4.00000000      -0.00639948      -0.00628172      -0.01128637
Fe       4.93745731      -0.00052028      -0.00232102      -4.00000000      -0.00241478      -0.00403663      -0.01249839
Fe       2.52124314       2.52124314       4.87829631      -4.00000000       0.01528315       0.01528315      -0.00535921
Fe       7.39628958       4.97209219       7.35533417      -4.00000000       0.10684708      -0.00083304      -0.03402804
Fe      -0.02012144       7.40550237       2.49412124      -4.00000000       0.01627508      -0.01180213       0.00100042
Fe      -0.00052028       4.93745731      -0.00232102      -4.00000000      -0.00403663      -0.00241478      -0.01249839
Fe       7.35384111       7.35384111       4.99523043      -4.00000000      -0.01684458      -0.01684458      -0.01701119
Fe       2.46759673       0.02193995       7.38076465      -4.00000000      -0.00628172      -0.00639948      -0.01128637
Fe       4.90032577       2.50800542       2.51438725      -4.00000000      -0.02367909       0.05266545       0.00450072
Fe       0.00035192       0.00035192       4.93826563      -4.00000000       0.00253202       0.00253202       0.00189130
Fe       7.39183081       2.48159492      -0.00044432      -4.00000000      -0.01498465       0.00103410      -0.00077056
Fe       2.50800542       4.90032577       2.51438725      -4.00000000       0.05266545      -0.02367909       0.00450072
Fe       4.97209219       7.39628958       7.35533417      -4.00000000      -0.00083304       0.10684708      -0.03402804
S        2.48600363       2.48600363       2.47632328       0.00000000      -0.00217927      -0.00217927      -0.00349644
S        4.89681391       9.83861060       7.45318603       0.00000000       0.00855380       0.00004114      -0.01420457
S        9.82496279       7.45809727       4.90573872       0.00000000       0.00302927      -0.00457579       0.00315783
S        7.44728436       4.89555214       9.81828090       0.00000000      -0.03964975      -0.01253593      -0.05095798
S        0.03882166       4.98077754       2.41815629       0.00000000       0.00912844      -0.00130149      -0.01116244
S        7.38987615       7.38987615       7.40153424       0.00000000       0.00127244       0.00127244       0.00730013
S        4.97526441       2.42413085       0.04060719       0.00000000      -0.01428993       0.01614164      -0.02998343
S        2.41770433       0.05283426       4.97142446       0.00000000       0.00395256       0.00684865      -0.00094282
S        2.51295023       7.46245253       7.44756653       0.00000000       0.00502342       0.00085181      -0.00686459
S        4.85727809       4.85727809       2.46399400       0.00000000       0.02329857       0.02329857      -0.10358872
S        9.82755150       2.51121936       9.81788720       0.00000000       0.00125778       0.01016897      -0.00636657
S        7.45809727       9.82496279       4.90573872       0.00000000      -0.00457579       0.00302927       0.00315783
S        0.04937970       0.04937970       7.36940277       0.00000000       0.01099609       0.01099609       0.00428551
S        7.36211001       2.41594151       2.42624936       0.00000000      -0.01036103       0.01209781      -0.00615933
S        5.00788735       7.41382554       5.01281754       0.00000000      -0.01265497       0.09407564      -0.02596711
S        2.42413085       4.97526441       0.04060719       0.00000000       0.01614164      -0.01428993      -0.02998343
S        7.46245253       2.51295023       7.44756653       0.00000000       0.00085181       0.00502342      -0.00686459
S        9.82831864       9.82831864       2.50710199       0.00000000      -0.00398572      -0.00398572      -0.00256622
S        4.89555214       7.44728436       9.81828090       0.00000000      -0.01253593      -0.03964975      -0.05095798
S        2.46754221       4.86535192       4.85618010       0.00000000      -0.08530895      -0.00559215      -0.01157434
S        5.01177429       5.01177429       7.22041712       0.00000000      -0.04851312      -0.04851312      -0.85794139
S        2.41594151       7.36211001       2.42624936       0.00000000       0.01209781      -0.01036103      -0.00615933
S        0.05283426       2.41770433       4.97142446       0.00000000       0.00684865       0.00395256      -0.00094282
S        7.36519153       0.04983806       0.05649545       0.00000000      -0.00728753       0.00541731      -0.00447192
S        7.43837290       7.43837290       2.51830418       0.00000000       0.00991263       0.00991263       0.00751328
S        9.83861060       4.89681391       7.45318603       0.00000000       0.00004114       0.00855380      -0.01420457
S        4.86535192       2.46754221       4.85618010       0.00000000      -0.00559215      -0.08530895      -0.01157434
S        2.51121936       9.82755150       9.81788720       0.00000000       0.01016897       0.00125778      -0.00636657
S        4.98077754       0.03882166       2.41815629       0.00000000      -0.00130149       0.00912844      -0.01116244
S        2.44030307       2.44030307       7.35152148       0.00000000       0.00469561       0.00469561      -0.04428288
S        0.04983806       7.36519153       0.05649545       0.00000000       0.00541731      -0.00728753      -0.00447192
S        7.41382554       5.00788735       5.01281754       0.00000000       0.09407564      -0.01265497      -0.02596711
H        4.91909736       4.91909736       5.23837391       0.00000000      -0.08192383      -0.08192383       1.60975149
56
Lattice="9.876 0.0 0.0 0.0 9.876 0.0 0.0 0.0 9.876" Properties=species:S:1:pos:R:3:initial_magmoms:R:1:forces:R:3 spacegroup="F d -3 m" unit_cell=conventional mineral=greigite rc=0.75 image_index=6 U_eV=0.0 nspin=2 source_file=results/dft_datasets/2026-05-27/w2_greigite_full_neb/greig_neb_full_s150/neb.traj method=PBE_U0_ONCV energy=-88089.99504536515 pbc="T T T"
Fe       1.21920619       1.21920619       1.21165075       5.00000000      -0.00553507      -0.00553507      -0.01382148
Fe       6.15900877       1.25254553       6.15303299       5.00000000       0.01444831      -0.02130519      -0.00001980
Fe       1.25254553       6.15900877       6.15303299       5.00000000      -0.02130519       0.01444831      -0.00001980
Fe       6.14358506       6.14358506       1.24275288       5.00000000       0.00224406       0.00224406      -0.03597128
Fe       8.63022096       3.71549578       3.71290354       5.00000000       0.04261038      -0.01733309      -0.04111605
Fe       8.65709893       8.65709893       8.66249887       5.00000000       0.00442744       0.00442744      -0.00031110
Fe       3.72242790       3.72242790       8.58802287       5.00000000      -0.06339723      -0.06339723      -0.10255951
Fe       3.71549578       8.63022096       3.71290354       5.00000000      -0.01733309       0.04261038      -0.04111605
Fe       2.48026816       7.38971774      -0.00113472      -4.00000000      -0.00884845      -0.01376569      -0.00435159
Fe       7.40450092      -0.01797911       2.49355839      -4.00000000      -0.00984912       0.01854460      -0.00576236
Fe       0.02018745       2.46488913       7.37932687      -4.00000000      -0.01364150      -0.01838390      -0.01247036
Fe       4.93736198      -0.00076006      -0.00372994      -4.00000000       0.00010927      -0.00283001      -0.00816737
Fe       2.52458597       2.52458597       4.87657297      -4.00000000       0.02305842       0.02305842      -0.01587065
Fe       7.42551119       4.96947369       7.34203765      -4.00000000       0.20625235      -0.01958641      -0.08934198
Fe      -0.01797911       7.40450092       2.49355839      -4.00000000       0.01854460      -0.00984912      -0.00576236
Fe      -0.00076006       4.93736198      -0.00372994      -4.00000000      -0.00283001       0.00010927      -0.00816737
Fe       7.35184739       7.35184739       4.99318222      -4.00000000      -0.01387573      -0.01387573      -0.01269148
Fe       2.46488913       0.02018745       7.37932687      -4.00000000      -0.01838390      -0.01364150      -0.01247036
Fe       4.89771782       2.51484319       2.51329571      -4.00000000      -0.01988208       0.04844370      -0.00251402
Fe       0.00005707       0.00005707       4.93922570      -4.00000000      -0.00122410      -0.00122410       0.00623955
Fe       7.38971774       2.48026816      -0.00113472      -4.00000000      -0.01376569      -0.00884845      -0.00435159
Fe       2.51484319       4.89771782       2.51329571      -4.00000000       0.04844370      -0.01988208      -0.00251402
Fe       4.96947369       7.42551119       7.34203765      -4.00000000      -0.01958641       0.20625235      -0.08934198
S        2.48571373       2.48571373       2.47422437       0.00000000      -0.00315989      -0.00315989      -0.01608842
S        4.89841774       9.84348248       7.45118246       0.00000000       0.01123906       0.03720978      -0.01207339
S        9.82511789       7.45898471       4.90526726       0.00000000       0.00214893       0.00741506      -0.00437499
S        7.43869080       4.89318883       9.80693945       0.00000000      -0.05417083      -0.01417423      -0.07538886
S        0.03884296       4.98097456       2.41366947       0.00000000       0.00056024      -0.00002905      -0.03100648
S        7.38996649       7.38996649       7.40270308       0.00000000       0.00160411       0.00160411       0.00598784
S        4.97120686       2.42823056       0.03268206       0.00000000      -0.02891077       0.02474095      -0.04701134
S        2.41650996       0.05252315       4.97090141       0.00000000      -0.00896595      -0.00189387      -0.00599016
S        2.51212132       7.46397008       7.44592059       0.00000000      -0.00512035       0.01009029      -0.01122672
S        4.85918946       4.85918946       2.44958543       0.00000000       0.01602929       0.01602929      -0.10006965
S        9.82785568       2.51252837       9.81688940       0.00000000       0.00094565       0.00815965      -0.00838360
S        7.45898471       9.82511789       4.90526726       0.00000000       0.00741506       0.00214893      -0.00437499
S        0.05024820       0.05024820       7.37138645       0.00000000       0.00508641       0.00508641       0.01258606
S        7.36049093       2.41674471       2.42441600       0.00000000      -0.01200911       0.00674015      -0.01258632
S        5.01002034       7.44625865       5.00420771       0.00000000       0.01370321       0.21888521      -0.05482723
S        2.42823056       4.97120686       0.03268206       0.00000000       0.02474095      -0.02891077      -0.04701134
S        7.46397008       2.51212132       7.44592059       0.00000000       0.01009029      -0.00512035      -0.01122672
S        9.82786987       9.82786987       2.50612919       0.00000000      -0.00345659      -0.00345659      -0.00801670
S        4.89318883       7.43869080       9.80693945       0.00000000      -0.01417423      -0.05417083      -0.07538886
S        2.43800189       4.86353598       4.85028033       0.00000000      -0.19920727      -0.01207107      -0.03783918
S        5.00527835       5.00527835       7.07968935       0.00000000      -0.04470994      -0.04470994      -0.93374831
S        2.41674471       7.36049093       2.42441600       0.00000000       0.00674015      -0.01200911      -0.01258632
S        0.05252315       2.41650996       4.97090141       0.00000000      -0.00189387      -0.00896595      -0.00599016
S        7.36448651       0.05074630       0.05534856       0.00000000      -0.00400629       0.00695586      -0.00905543
S        7.43907642       7.43907642       2.51732590       0.00000000       0.00681805       0.00681805      -0.00705922
S        9.84348248       4.89841774       7.45118246       0.00000000       0.03720978       0.01123906      -0.01207339
S        4.86353598       2.43800189       4.85028033       0.00000000      -0.01207107      -0.19920727      -0.03783918
S        2.51252837       9.82785568       9.81688940       0.00000000       0.00815965       0.00094565      -0.00838360
S        4.98097456       0.03884296       2.41366947       0.00000000      -0.00002905       0.00056024      -0.03100648
S        2.43971131       2.43971131       7.34230768       0.00000000      -0.00461076      -0.00461076      -0.06258399
S        0.05074630       7.36448651       0.05534856       0.00000000       0.00695586      -0.00400629      -0.00905543
S        7.44625865       5.01002034       5.00420771       0.00000000       0.21888521       0.01370321      -0.05482723
H        4.90380616       4.90380616       5.56244031       0.00000000      -0.11251687      -0.11251687       2.23099224
56
Lattice="9.876 0.0 0.0 0.0 9.876 0.0 0.0 0.0 9.876" Properties=species:S:1:pos:R:3:initial_magmoms:R:1:forces:R:3 spacegroup="F d -3 m" unit_cell=conventional mineral=greigite rc=0.875 image_index=7 U_eV=0.0 nspin=2 source_file=results/dft_datasets/2026-05-27/w2_greigite_full_neb/greig_neb_full_s150/neb.traj method=PBE_U0_ONCV energy=-88090.49890658719 pbc="T T T"
Fe       1.21972086       1.21972086       1.20725770       5.00000000      -0.00681445      -0.00681445      -0.01441746
Fe       6.16998995       1.25139571       6.15137741       5.00000000       0.01018722       0.00164216      -0.01078141
Fe       1.25139571       6.16998995       6.15137741       5.00000000       0.00164216       0.01018722      -0.01078141
Fe       6.14990680       6.14990680       1.22506130       5.00000000       0.00969074       0.00969074      -0.03058173
Fe       8.64259078       3.71051987       3.70383176       5.00000000       0.01427322      -0.00785009      -0.02444245
Fe       8.65513561       8.65513561       8.65846088       5.00000000       0.00199980       0.00199980      -0.00077519
Fe       3.69665208       3.69665208       8.61855940       5.00000000      -0.04304181      -0.04304181       0.03625075
Fe       3.71051987       8.64259078       3.70383176       5.00000000      -0.00785009       0.01427322      -0.02444245
Fe       2.47773284       7.39001722      -0.00179715      -4.00000000      -0.00010953      -0.01085417      -0.00732404
Fe       7.40030965      -0.00989734       2.48519266      -4.00000000      -0.00218004       0.00281690      -0.00390833
Fe       0.02768530       2.45100280       7.37014212      -4.00000000      -0.00099347      -0.01149694      -0.01371658
Fe       4.94099937      -0.00511280       0.00215881      -4.00000000       0.00222503      -0.00108063      -0.00098705
Fe       2.52828804       2.52828804       4.87284308      -4.00000000       0.00557929       0.00557929      -0.01491343
Fe       7.49256458       4.94721300       7.33105774      -4.00000000       0.08444891      -0.01196591      -0.03611783
Fe      -0.00989734       7.40030965       2.48519266      -4.00000000       0.00281690      -0.00218004      -0.00390833
Fe      -0.00511280       4.94099937       0.00215881      -4.00000000      -0.00108063       0.00222503      -0.00098705
Fe       7.35385332       7.35385332       4.99542891      -4.00000000       0.00409140       0.00409140      -0.00024040
Fe       2.45100280       0.02768530       7.37014212      -4.00000000      -0.01149694      -0.00099347      -0.01371658
Fe       4.89150139       2.53000138       2.51634877      -4.00000000      -0.00973111       0.01491908      -0.01327075
Fe      -0.00159226      -0.00159226       4.93403056      -4.00000000       0.00157737       0.00157737      -0.00242378
Fe       7.39001722       2.47773284      -0.00179715      -4.00000000      -0.01085417      -0.00010953      -0.00732404
Fe       2.53000138       4.89150139       2.51634877      -4.00000000       0.01491908      -0.00973111      -0.01327075
Fe       4.94721300       7.49256458       7.33105774      -4.00000000      -0.01196591       0.08444891      -0.03611783
S        2.48512399       2.48512399       2.47061780       0.00000000      -0.00327276      -0.00327276      -0.01870606
S        4.89736148       9.87072426       7.45538777       0.00000000       0.00336660       0.03131629      -0.00415696
S        9.82814086       7.46428418       4.90018932       0.00000000       0.00303827       0.00166273      -0.00772025
S        7.44061408       4.88936758       9.79844982       0.00000000       0.00900015      -0.00614031      -0.01615938
S        0.04222215       4.98008921       2.40618464       0.00000000       0.01034252      -0.00441201      -0.01839264
S        7.38715029       7.38715029       7.40010453       0.00000000       0.00443258       0.00443258      -0.01209447
S        4.96798617       2.42186852       0.03912455       0.00000000      -0.00162262      -0.00658742      -0.00599298
S        2.41038062       0.05444475       4.96616564       0.00000000      -0.00469972      -0.00145576      -0.01180908
S        2.50573091       7.47352359       7.44333113       0.00000000      -0.00109195       0.00169513      -0.01288483
S        4.86220222       4.86220222       2.41663264       0.00000000       0.01252641       0.01252641      -0.01925808
S        9.82910074       2.51283387       9.81118529       0.00000000      -0.00244615       0.00150127      -0.01285963
S        7.46428418       9.82814086       4.90018932       0.00000000       0.00166273       0.00303827      -0.00772025
S        0.04660672       0.04660672       7.37201062       0.00000000      -0.00095799      -0.00095799       0.00100042
S        7.35998630       2.42042647       2.42097880       0.00000000      -0.00574847       0.00685276      -0.01415907
S        5.01130724       7.48685528       5.00960331       0.00000000      -0.00007353       0.04044962      -0.00914310
S        2.42186852       4.96798617       0.03912455       0.00000000      -0.00658742      -0.00162262      -0.00599298
S        7.47352359       2.50573091       7.44333113       0.00000000       0.00169513      -0.00109195      -0.01288483
S        9.82743828       9.82743828       2.49943931       0.00000000      -0.00363914      -0.00363914      -0.00821082
S        4.88936758       7.44061408       9.79844982       0.00000000      -0.00614031       0.00900015      -0.01615938
S        2.40796210       4.86194951       4.84578626       0.00000000      -0.03386914      -0.00525508      -0.01506024
S        5.02709234       5.02709234       7.26111903       0.00000000       0.01711943       0.01711943       0.20218950
S        2.42042647       7.35998630       2.42097880       0.00000000       0.00685276      -0.00574847      -0.01415907
S        0.05444475       2.41038062       4.96616564       0.00000000      -0.00145576      -0.00469972      -0.01180908
S        7.36620938       0.05220907       0.04906532       0.00000000      -0.00168510       0.00419475      -0.00877826
S        7.44255396       7.44255396       2.51151698       0.00000000       0.00239164       0.00239164      -0.00814371
S        9.87072426       4.89736148       7.45538777       0.00000000       0.03131629       0.00336660      -0.00415696
S        4.86194951       2.40796210       4.84578626       0.00000000      -0.00525508      -0.03386914      -0.01506024
S        2.51283387       9.82910074       9.81118529       0.00000000       0.00150127      -0.00244615      -0.01285963
S        4.98008921       0.04222215       2.40618464       0.00000000      -0.00441201       0.01034252      -0.01839264
S        2.44123242       2.44123242       7.33385935       0.00000000      -0.00031573      -0.00031573      -0.02699350
S        0.05220907       7.36620938       0.04906532       0.00000000       0.00419475      -0.00168510      -0.00877826
S        7.48685528       5.01130724       5.00960331       0.00000000       0.04044962      -0.00007353      -0.00914310
H        4.79642031       4.79642031       5.92147064       0.00000000      -0.11395026      -0.11395026       0.41264817
56
Lattice="9.876 0.0 0.0 0.0 9.876 0.0 0.0 0.0 9.876" Properties=species:S:1:pos:R:3:initial_magmoms:R:1:forces:R:3 spacegroup="F d -3 m" unit_cell=conventional mineral=greigite rc=1.0 image_index=8 U_eV=0.0 nspin=2 source_file=results/dft_datasets/2026-05-27/w2_greigite_full_neb/greig_neb_full_s150/neb.traj method=PBE_U0_ONCV energy=-88090.59816106223 pbc="T T T"
Fe       1.21769251       1.21769251       1.20399405       5.00000000       0.00485836       0.00485836       0.00131718
Fe       6.17710510       1.26090984       6.14730864       5.00000000      -0.00661853      -0.00858774       0.00216873
Fe       1.26090984       6.17710510       6.14730864       5.00000000      -0.00858774      -0.00661853       0.00216873
Fe       6.16058087       6.16058087       1.22282728       5.00000000      -0.00332984      -0.00332984       0.00950125
Fe       8.64427005       3.71539243       3.70824055       5.00000000      -0.00124750      -0.00622490       0.00339617
Fe       8.65168680       8.65168680       8.65029605       5.00000000      -0.00251197      -0.00251197      -0.00197075
Fe       3.66618395       3.66618395       8.70348624       5.00000000       0.00195455       0.00195455       0.00020929
Fe       3.71539243       8.64427005       3.70824055       5.00000000      -0.00622490      -0.00124750       0.00339617
Fe       2.47685761       7.39454590       0.00580232      -4.00000000      -0.00744489       0.01028904       0.00323753
Fe       7.38897104       0.00626944       2.47259618      -4.00000000       0.00351007       0.00982136      -0.00703994
Fe       0.04457262       2.44136582       7.36136363      -4.00000000       0.00674015       0.00326119      -0.00648818
Fe       4.94605755      -0.01046626       0.01039044      -4.00000000       0.00191290      -0.00734873      -0.00688824
Fe       2.53212344       2.53212344       4.87046663      -4.00000000       0.00276316       0.00276316       0.01366001
Fe       7.52974541       4.91902822       7.34557753      -4.00000000       0.00878135      -0.00613157      -0.00310229
Fe       0.00626944       7.38897104       2.47259618      -4.00000000       0.00982136       0.00351007      -0.00703994
Fe      -0.01046626       4.94605755       0.01039044      -4.00000000      -0.00734873       0.00191290      -0.00688824
Fe       7.35920340       7.35920340       4.99669588      -4.00000000      -0.00761278      -0.00761278      -0.01021396
Fe       2.44136582       0.04457262       7.36136363      -4.00000000       0.00326119       0.00674015      -0.00648818
Fe       4.87655591       2.54807645       2.53290259      -4.00000000       0.01168155       0.00123516       0.00562814
Fe      -0.00090750      -0.00090750       4.92953196      -4.00000000      -0.00268192      -0.00268192      -0.01340547
Fe       7.39454590       2.47685761       0.00580232      -4.00000000       0.01028904      -0.00744489       0.00323753
Fe       2.54807645       4.87655591       2.53290259      -4.00000000       0.00123516       0.01168155       0.00562814
Fe       4.91902822       7.52974541       7.34557753      -4.00000000      -0.00613157       0.00878135      -0.00310229
S        2.48290512       2.48290512       2.47100387       0.00000000      -0.01674971      -0.01674971      -0.01415675
S        4.89737461       9.89834452       7.45993125       0.00000000      -0.01051993      -0.00558958       0.00873275
S        9.83653618       7.46551766       4.89340519       0.00000000      -0.00843142       0.00681162      -0.00301436
S        7.46030373       4.88916245       9.81792306       0.00000000      -0.00542246       0.00667844      -0.00589914
S        0.05192845       4.97581127       2.41107390       0.00000000       0.00628866       0.00184220       0.00033193
S        7.37822080       7.37822080       7.39635490       0.00000000       0.00649692       0.00649692       0.00463750
S        4.97476901       2.40440119       0.07530083       0.00000000       0.00379546      -0.00847667       0.01384770
S        2.41273826       0.05999949       4.96412338       0.00000000      -0.00313983       0.00191007      -0.01135039
S        2.50354831       7.48047169       7.44787309       0.00000000       0.00375458       0.00031470      -0.00016609
S        4.87227788       4.87227788       2.41310962       0.00000000       0.00659694       0.00659694       0.00071708
S        9.82736935       2.51146336       9.80613188       0.00000000       0.00879086       0.00228854      -0.00444749
S        7.46551766       9.83653618       4.89340519       0.00000000       0.00681162      -0.00843142      -0.00301436
S        0.04497292       0.04497292       7.36890461       0.00000000      -0.01010546      -0.01010546      -0.01010752
S        7.36029463       2.42832801       2.42364491       0.00000000      -0.00309689       0.00294134      -0.00239164
S        5.00799906       7.48626941       5.02728507       0.00000000       0.00176686      -0.00614571       0.00633880
S        2.40440119       4.97476901       0.07530083       0.00000000      -0.00847667       0.00379546       0.01384770
S        7.48047169       2.50354831       7.44787309       0.00000000       0.00031470       0.00375458      -0.00016609
S        9.82355364       9.82355364       2.49437964       0.00000000       0.00440224       0.00440224       0.00149278
S        4.88916245       7.46030373       9.81792306       0.00000000       0.00667844      -0.00542246      -0.00589914
S        2.42257020       4.86402873       4.85177267       0.00000000      -0.00648535       0.01223228       0.01509263
S        5.03559480       5.03559480       7.46286102       0.00000000      -0.00570399      -0.00570399       0.00314780
S        2.42832801       7.36029463       2.42364491       0.00000000       0.00294134      -0.00309689      -0.00239164
S        0.05999949       2.41273826       4.96412338       0.00000000       0.00191007      -0.00313983      -0.01135039
S        7.36928657       0.05121920       0.04260611       0.00000000      -0.00188539       0.00389574       0.00068340
S        7.45126745       7.45126745       2.51338290       0.00000000       0.00221038       0.00221038       0.00237107
S        9.89834452       4.89737461       7.45993125       0.00000000      -0.00558958      -0.01051993       0.00873275
S        4.86402873       2.42257020       4.85177267       0.00000000       0.01223228      -0.00648535       0.01509263
S        2.51146336       9.82736935       9.80613188       0.00000000       0.00228854       0.00879086      -0.00444749
S        4.97581127       0.05192845       2.41107390       0.00000000       0.00184220       0.00628866       0.00033193
S        2.44847606       2.44847606       7.34752018       0.00000000      -0.00382863      -0.00382863      -0.01065542
S        0.05121920       7.36928657       0.04260611       0.00000000       0.00389574      -0.00188539       0.00068340
S        7.48626941       5.00799906       5.02728507       0.00000000      -0.00614571       0.00176686       0.00633880
H        4.67234444       4.67234444       6.19689280       0.00000000       0.00549496       0.00549496       0.00611588
