56
Lattice="9.876 0.0 0.0 0.0 9.876 0.0 0.0 0.0 9.876" Properties=species:S:1:pos:R:3:spacegroup_kinds:I:1:initial_magmoms:R:1:forces:R:3 meta_mineral=greigite meta_method=PBE_U0_ONCV meta_U_eV=0.0 meta_nspin=2 meta_spacegroup="F d -3 m" meta_unit_cell=conventional meta_image_index=0 meta_rc=0.0 meta_reaction=V_Fe_16d_SH_hop_cation_edge meta_barrier_meV=566.829 meta_source_file=results/dft_datasets/2026-09-21_greigite_two_stream/greig_cation/final_00.xyz meta_note="V_Fe(16d) + S-H hop along the edge SHARED with an occupied Fe_oct. Contrast case: 2.40x the channel barrier." energy=-88090.59643953403 pbc="T T T"
Fe       1.22320505       1.22320505       1.22269100        0       5.00000000       0.00469921       0.00469921       0.00424309
Fe       6.16305049       1.23091844       6.16816458        0       5.00000000      -0.00332341      -0.00529236       0.00459868
Fe       1.23091844       6.16305049       6.16816458        0       5.00000000      -0.00529236      -0.00332341       0.00459868
Fe       6.20863295       6.20863295       1.18120745        0       5.00000000       0.00681625       0.00681625      -0.04484595
Fe       8.61655727       3.70083879       3.72983040        0       5.00000000       0.01212866      -0.02091387      -0.01554618
Fe       8.66010253       8.66010253       8.67212932        0       5.00000000      -0.00192087      -0.00192087       0.00153083
Fe       3.71682713       3.71682713       8.65343683        0       5.00000000      -0.01411973      -0.01411973       0.01964323
Fe       3.70083879       8.61655727       3.72983040        0       5.00000000      -0.02091387       0.01212866      -0.01554618
Fe       2.48428502       7.40070007      -0.00715881        1      -4.00000000      -0.01437324      -0.00439402       0.00663396
Fe       7.43073304      -0.04151845       2.50647858        1      -4.00000000       0.01250713       0.00899603       0.02536933
Fe      -0.00373818       2.48456064       7.40420807        1      -4.00000000      -0.01153345       0.00787426      -0.00321131
Fe       4.93065927       0.00711741      -0.01108964        1      -4.00000000      -0.00466784       0.02158750       0.00091788
Fe       2.51893140       2.51893140       4.88040574        1      -4.00000000      -0.01167204      -0.01167204      -0.00429708
Fe       7.32906465       4.99499384       7.34844641        1      -4.00000000       0.00232505       0.01282081      -0.01971470
Fe      -0.04151845       7.43073304       2.50647858        1      -4.00000000       0.00899603       0.01250713       0.02536933
Fe       0.00711741       4.93065927      -0.01108964        1      -4.00000000       0.02158750      -0.00466784       0.00091788
Fe       7.34561195       7.34561195       5.00004346        1      -4.00000000      -0.00281356      -0.00281356       0.02371303
Fe       2.48456064      -0.00373818       7.40420807        1      -4.00000000       0.00787426      -0.01153345      -0.00321131
Fe       4.95531983       2.34443138       2.53248257        1      -4.00000000       0.00028694       0.00166787      -0.01367621
Fe      -0.00096054      -0.00096054       4.94283043        1      -4.00000000       0.00489101       0.00489101       0.00990749
Fe       7.40070007       2.48428502      -0.00715881        1      -4.00000000      -0.00439402      -0.01437324       0.00663396
Fe       2.34443138       4.95531983       2.53248257        1      -4.00000000       0.00166787       0.00028694      -0.01367621
Fe       4.99499384       7.32906465       7.34844641        1      -4.00000000       0.01282081       0.00232505      -0.01971470
S        2.49553391       2.49553391       2.47653512        2       0.00000000       0.00601175       0.00601175       0.01790362
S        4.90052858       9.82405246       7.46691617        2       0.00000000      -0.00363245       0.00376281      -0.01129897
S        9.81858792       7.46660378       4.91004871        2       0.00000000      -0.00790820      -0.01002653      -0.00071425
S        7.47148672       4.90184201       9.80434632        2       0.00000000      -0.00906057       0.01176280      -0.00264104
S       -0.02299307       4.97855746       2.41126863        2       0.00000000      -0.00180594       0.00015864       0.01547907
S        7.39604408       7.39604408       7.40796789        2       0.00000000      -0.02147154      -0.02147154      -0.02460854
S        4.98566127       2.41486990       0.06132654        2       0.00000000       0.00227414       0.00735156      -0.00936679
S        2.40679877       0.04094860       4.98234237        2       0.00000000       0.01531503       0.00017921       0.00068751
S        2.51666568       7.44804255       7.45320735        2       0.00000000      -0.00486761      -0.00325425      -0.00519029
S        4.83968436       4.83968436       2.41554290        2       0.00000000      -0.02133913      -0.02133913      -0.01187824
S        9.82343556       2.50592747       9.83174992        2       0.00000000       0.00299765       0.00336712       0.00434234
S        7.46660378       9.81858792       4.91004871        2       0.00000000      -0.01002653      -0.00790820      -0.00071425
S        0.05244465       0.05244465       7.38034475        2       0.00000000      -0.00373427      -0.00373427       0.00250297
S        7.37091537       2.39715041       2.42857917        2       0.00000000       0.00776267       0.00409114       0.00187228
S        5.01270409       7.45779946       5.02548130        2       0.00000000       0.00567905      -0.00807429       0.00174475
S        2.41486990       4.98566127       0.06132654        2       0.00000000       0.00735156       0.00227414      -0.00936679
S        7.44804255       2.51666568       7.45320735        2       0.00000000      -0.00325425      -0.00486761      -0.00519029
S        9.83150848       9.83150848       2.50386355        2       0.00000000      -0.00544045      -0.00544045       0.01334865
S        4.90184201       7.47148672       9.80434632        2       0.00000000       0.01176280      -0.00906057      -0.00264104
S        2.38260278       4.86673231       4.84746055        2       0.00000000       0.02105451       0.00577701       0.00482056
S        5.00369697       5.00369697       7.46499232        2       0.00000000       0.00928914       0.00928914      -0.01088939
S        2.39715041       7.37091537       2.42857917        2       0.00000000       0.00409114       0.00776267       0.00187228
S        0.04094860       2.40679877       4.98234237        2       0.00000000       0.00017921       0.01531503       0.00068751
S        7.36517024       0.05138665       0.06653411        2       0.00000000      -0.00126473      -0.01515151       0.00592511
S        7.43099570       7.43099570       2.52811652        2       0.00000000      -0.00417007      -0.00417007       0.00708313
S        9.82405246       4.90052858       7.46691617        2       0.00000000       0.00376281      -0.00363245      -0.01129897
S        4.86673231       2.38260278       4.84746055        2       0.00000000       0.00577701       0.02105451       0.00482056
S        2.50592747       9.82343556       9.83174992        2       0.00000000       0.00336712       0.00299765       0.00434234
S        4.97855746      -0.02299307       2.41126863        2       0.00000000       0.00015864      -0.00180594       0.01547907
S        2.42542517       2.42542517       7.36463319        2       0.00000000       0.00185017       0.00185017      -0.00602487
S        0.05138665       7.36517024       0.06653411        2       0.00000000      -0.01515151      -0.00126473       0.00592511
S        7.45779946       5.01270409       5.02548130        2       0.00000000      -0.00807429       0.00567905       0.00174475
H        5.19569736       5.19569736       3.68379924        0       0.00000000       0.01094107       0.01094107       0.02060431
56
Lattice="9.876 0.0 0.0 0.0 9.876 0.0 0.0 0.0 9.876" Properties=species:S:1:pos:R:3:spacegroup_kinds:I:1:initial_magmoms:R:1:forces:R:3 meta_mineral=greigite meta_method=PBE_U0_ONCV meta_U_eV=0.0 meta_nspin=2 meta_spacegroup="F d -3 m" meta_unit_cell=conventional meta_image_index=1 meta_rc=0.125 meta_reaction=V_Fe_16d_SH_hop_cation_edge meta_barrier_meV=566.829 meta_source_file=results/dft_datasets/2026-09-21_greigite_two_stream/greig_cation/final_01.xyz meta_note="V_Fe(16d) + S-H hop along the edge SHARED with an occupied Fe_oct. Contrast case: 2.40x the channel barrier." energy=-88090.5730014167 pbc="T T T"
Fe       1.21411298       1.22400244       1.22991523        0       5.00000000      -0.00184502       0.00093434       0.00279556
Fe       6.17153897       1.22702893       6.18835089        0       5.00000000      -0.00936730       0.00377387      -0.00481953
Fe       1.23229731       6.14341330       6.16534575        0       5.00000000      -0.01168258      -0.00093254       0.00254205
Fe       6.19347436       6.20148834       1.20595773        0       5.00000000       0.00332804      -0.00126678      -0.01848392
Fe       8.60175587       3.69245967       3.74192678        0       5.00000000      -0.00361317      -0.00093434      -0.00346096
Fe       8.66163744       8.65524517       8.68344044        0       5.00000000      -0.00611948      -0.00472003       0.00028616
Fe       3.71754582       3.70840895       8.65142271        0       5.00000000      -0.00547825       0.00310178       0.00197975
Fe       3.69736708       8.61857490       3.73564585        0       5.00000000      -0.00618402       0.00530161       0.00109426
Fe       2.49359817       7.41818794      -0.01997944        1      -4.00000000       0.00062066       0.00277499      -0.00339308
Fe       7.43873248      -0.04978695       2.52916295        1      -4.00000000       0.00095825      -0.00967480       0.00724871
Fe       0.01543468       2.47089471       7.39026569        1      -4.00000000      -0.00749528      -0.00420838       0.00146579
Fe       4.93792223       0.01682768       0.00787485        1      -4.00000000      -0.00143570       0.00273745      -0.00197692
Fe       2.51654852       2.52768933       4.88457238        1      -4.00000000      -0.01158668       0.00279967       0.00276574
Fe       7.33368711       4.99290327       7.35839723        1      -4.00000000      -0.00614494       0.00079704      -0.00112717
Fe      -0.04537684       7.42958974       2.52667538        1      -4.00000000      -0.00839825       0.00468069       0.00447218
Fe       0.00643045       4.92960271       0.00952121        1      -4.00000000       0.00715512       0.00313880       0.00241607
Fe       7.34057772       7.33692615       5.01983250        1      -4.00000000      -0.00738215       0.00153495      -0.00542451
Fe       2.50215775      -0.04074910       7.43425567        1      -4.00000000      -0.00005965      -0.00654706       0.00326247
Fe       4.90434865       2.36615463       2.58857899        1      -4.00000000       0.01068191      -0.00694609      -0.00622284
Fe       0.00360638      -0.00454117       4.95549347        1      -4.00000000      -0.00196792       0.00178229       0.00809846
Fe       7.38181311       2.46983955       0.02228229        1      -4.00000000      -0.00639716      -0.00631694      -0.00011081
Fe       2.28687559       4.99976931       2.44399738        1      -4.00000000       0.00458839       0.00374070       0.03248717
Fe       5.00015749       7.32560287       7.35414483        1      -4.00000000      -0.00566645      -0.00158586      -0.00262561
S        2.47333888       2.50567741       2.48293831        2       0.00000000       0.00274928      -0.00210985       0.00334578
S        4.90930927       9.81778249       7.48125115        2       0.00000000      -0.00295086      -0.00071965      -0.00279685
S        9.81691944       7.45678638       4.91970160        2       0.00000000      -0.00547465       0.00056153       0.00205920
S        7.46101676       4.90209236       9.82002208        2       0.00000000       0.00508641      -0.00504605      -0.00579090
S       -0.05509149       4.97812047       2.42194398        2       0.00000000      -0.00300356       0.00209442       0.00242712
S        7.39876052       7.38817985       7.41902962        2       0.00000000      -0.00589940      -0.00121922      -0.00349464
S        4.97677506       2.42154096       0.08083944        2       0.00000000      -0.00454365       0.00162725       0.00014013
S        2.41279189       0.04396690       4.99786497        2       0.00000000      -0.00313032       0.00238058       0.00520391
S        2.51602916       7.43100252       7.44903678        2       0.00000000      -0.00596959      -0.00593513      -0.00077827
S        4.77737401       4.85301296       2.42884278        2       0.00000000       0.01252590       0.00808561      -0.00462104
S        9.81536957       2.50958265       9.83655327        2       0.00000000      -0.00366254      -0.00028514       0.00217207
S        7.46895301       9.80999418       4.93029784        2       0.00000000      -0.00630100      -0.00011621       0.00346662
S        0.06216199       0.04088132       7.39116069        2       0.00000000      -0.00404332      -0.00246852       0.00505042
S        7.34517266       2.39474582       2.44664621        2       0.00000000       0.00084615      -0.00458351      -0.00092791
S        5.00961998       7.45024878       5.03109469        2       0.00000000      -0.00973780      -0.00679003      -0.00555384
S        2.40555162       4.98802978       0.03078532        2       0.00000000       0.00388648       0.00321902       0.01708035
S        7.45728866       2.51354746       7.47279206        2       0.00000000      -0.00835840      -0.00085361      -0.00015967
S        9.83043458       9.83065791       2.51903309        2       0.00000000      -0.00309021       0.00200546       0.00338820
S        4.90226449       7.47058049       9.81458933        2       0.00000000      -0.00197358       0.00110429      -0.00484422
S        2.36790253       4.85657258       4.81730328        2       0.00000000      -0.00732996       0.00135497       0.00276548
S        5.01012083       5.00011067       7.47173537        2       0.00000000      -0.00696306      -0.00305344      -0.00706282
S        2.39063392       7.38778462       2.42451725        2       0.00000000      -0.00688876       0.00446652       0.00331158
S        0.03536750       2.40303254       4.98447463        2       0.00000000      -0.00716875       0.00031985      -0.00027408
S        7.36767487       0.04091567       0.08450944        2       0.00000000      -0.00355789      -0.00406877       0.00154420
S        7.42202923       7.42807891       2.54695286        2       0.00000000      -0.00713893      -0.00751585      -0.00282950
S        9.82150835       4.89088978       7.47496286        2       0.00000000      -0.00369313      -0.00425543       0.00343062
S        4.87344863       2.38908232       4.88121261        2       0.00000000      -0.00724331       0.00964241      -0.00508359
S        2.50603182       9.82896434       9.84546657        2       0.00000000      -0.00013370       0.00107369       0.00140382
S        4.97611536      -0.00700721       2.43003763        2       0.00000000       0.00105801      -0.00571505      -0.00008330
S        2.43106227       2.41233174       7.36441059        2       0.00000000      -0.00525405       0.00106289       0.00176635
S        0.05161173       7.36091341       0.07995319        2       0.00000000      -0.00160000       0.00151901       0.00189799
S        7.45152934       5.00726459       5.03770744        2       0.00000000       0.00215561      -0.00103641      -0.00074742
H        4.92110381       5.29193459       3.71544649        0       0.00000000       0.17029470       0.02128848      -0.03867505
56
Lattice="9.876 0.0 0.0 0.0 9.876 0.0 0.0 0.0 9.876" Properties=species:S:1:pos:R:3:spacegroup_kinds:I:1:initial_magmoms:R:1:forces:R:3 meta_mineral=greigite meta_method=PBE_U0_ONCV meta_U_eV=0.0 meta_nspin=2 meta_spacegroup="F d -3 m" meta_unit_cell=conventional meta_image_index=2 meta_rc=0.25 meta_reaction=V_Fe_16d_SH_hop_cation_edge meta_barrier_meV=566.829 meta_source_file=results/dft_datasets/2026-09-21_greigite_two_stream/greig_cation/final_02.xyz meta_note="V_Fe(16d) + S-H hop along the edge SHARED with an occupied Fe_oct. Contrast case: 2.40x the channel barrier." energy=-88090.45546061959 pbc="T T T"
Fe       1.21222222       1.22390386       1.22093284        0       5.00000000      -0.00463133       0.00184579       0.00174706
Fe       6.18734782       1.22613947       6.19446107        0       5.00000000      -0.01155711       0.00063943      -0.00653369
Fe       1.24761348       6.13669223       6.15735941        0       5.00000000      -0.02966719      -0.00949200       0.00993063
Fe       6.17832532       6.18710974       1.25004943        0       5.00000000       0.01997130       0.00840571      -0.03610883
Fe       8.60448836       3.69387116       3.74711158        0       5.00000000      -0.01882896      -0.00741172       0.00232531
Fe       8.67229971       8.65711868       8.68457856        0       5.00000000      -0.00807943      -0.00388314       0.00022909
Fe       3.73307994       3.70541156       8.63250511        0       5.00000000      -0.01037569      -0.00109400       0.00893998
Fe       3.70695546       8.61258798       3.73089621        0       5.00000000      -0.01704307       0.00843373       0.00218390
Fe       2.51229723       7.43148276      -0.03263643        1      -4.00000000       0.00435699       0.00695869      -0.01068448
Fe       7.44354430      -0.04406660       2.52610713        1      -4.00000000       0.00240064      -0.01571870       0.00716644
Fe       0.03443643       2.46823773       7.37694246        1      -4.00000000      -0.00964369      -0.00180440      -0.00114208
Fe       4.94266053       0.00917286       0.00962820        1      -4.00000000      -0.00248600       0.00105441      -0.00554638
Fe       2.53712410       2.53071704       4.86982986        1      -4.00000000      -0.03658911       0.03648267       0.00609737
Fe       7.35435549       4.98341671       7.37079760        1      -4.00000000      -0.01240043       0.00455625       0.00389085
Fe      -0.04074503       7.43528636       2.52798236        1      -4.00000000      -0.01702996       0.00928425       0.00998231
Fe       0.02252857       4.93985677       0.02826914        1      -4.00000000       0.01998133       0.01322113       0.02240485
Fe       7.34919752       7.33909555       5.02335254        1      -4.00000000      -0.01093850       0.00166787      -0.00044454
Fe       2.51483339      -0.04803117       7.43920915        1      -4.00000000       0.00179643      -0.01729530       0.00120250
Fe       4.88397760       2.38125257       2.59944902        1      -4.00000000       0.01050064      -0.04642641       0.01040577
Fe       0.01647881      -0.00220285       4.95543421        1      -4.00000000      -0.00001286      -0.00732970       0.00611203
Fe       7.37460150       2.46754487       0.03914593        1      -4.00000000      -0.00571016      -0.00177046      -0.00706873
Fe       2.24719964       5.01484598       2.34921536        1      -4.00000000       0.00009976       0.00203194       0.06379858
Fe       5.01340492       7.33264300       7.35778242        1      -4.00000000      -0.00829104      -0.00875152      -0.00198232
S        2.46237743       2.51222664       2.46962337        2       0.00000000      -0.00237107      -0.00383094       0.00709085
S        4.92199918       9.81849724       7.48561574        2       0.00000000      -0.00288992      -0.00390679      -0.00334398
S        9.82812479       7.45750967       4.91743142        2       0.00000000      -0.00815425      -0.00220446       0.00486273
S        7.45811425       4.90434710       9.84095271        2       0.00000000       0.01359368      -0.00207077      -0.01025716
S       -0.06773758       4.98141458       2.42167824        2       0.00000000      -0.01438764       0.00214250       0.01240686
S        7.41189178       7.38571097       7.42302020        2       0.00000000      -0.00986995      -0.00196818      -0.00106341
S        4.97762969       2.42296712       0.07981999        2       0.00000000      -0.00487327       0.00144907       0.01017051
S        2.42440717       0.04417960       4.99352286        2       0.00000000      -0.00680442       0.01066854       0.00779944
S        2.52845559       7.43002737       7.44122875        2       0.00000000      -0.00952388      -0.01237601      -0.00153701
S        4.73318110       4.84574953       2.46519777        2       0.00000000      -0.00675609      -0.00880860      -0.07758201
S        9.81606816       2.51832078       9.82980283        2       0.00000000      -0.00644730       0.00581455       0.00456165
S        7.48210384       9.81197912       4.93130784        2       0.00000000      -0.00494192      -0.00467272       0.00432974
S        0.07563399       0.03949408       7.39050166        2       0.00000000      -0.00477865      -0.00168664       0.00495606
S        7.34097869       2.39934662       2.45379986        2       0.00000000      -0.00658100      -0.01292674      -0.00029182
S        5.02232745       7.46172315       5.03653170        2       0.00000000      -0.01704770      -0.00602384      -0.00721374
S        2.41224291       4.98842750      -0.01266111        2       0.00000000       0.00174012       0.00556515       0.03070283
S        7.47124460       2.51346549       7.48026914        2       0.00000000      -0.01269276       0.00075848      -0.00253845
S        9.83559819       9.83348255       2.51842829        2       0.00000000      -0.00645295       0.00298685       0.00217644
S        4.91127475       7.46169834       9.82873338        2       0.00000000       0.00160283       0.00191470      -0.01036180
S        2.37614340       4.84924142       4.79792284        2       0.00000000      -0.07146124      -0.00394510       0.01003039
S        5.02882158       5.00595249       7.46713255        2       0.00000000      -0.01018388      -0.00853503      -0.00449866
S        2.39358037       7.39048358       2.41128165        2       0.00000000      -0.01105729       0.00336146       0.00341057
S        0.04674015       2.40366090       4.98045431        2       0.00000000      -0.01808797      -0.00606086      -0.00097805
S        7.37429376       0.03926466       0.08655795        2       0.00000000      -0.00617630      -0.00195070       0.00040881
S        7.42749165       7.43408577       2.55437597        2       0.00000000      -0.01264623      -0.01041657       0.00318148
S        9.83096994       4.89160043       7.47841208        2       0.00000000      -0.01026410      -0.01102592       0.02014999
S        4.88649657       2.37599936       4.88543953        2       0.00000000      -0.01150054       0.01195460      -0.00482365
S        2.51223829       9.83256570       9.84337202        2       0.00000000      -0.00071348       0.00301539      -0.00257805
S        4.97869505       0.00517180       2.43037837        2       0.00000000      -0.00376332      -0.01753030      -0.00206382
S        2.44474176       2.40752562       7.35179249        2       0.00000000      -0.00797993      -0.00485039       0.00415825
S        0.06219001       7.36169393       0.07858451        2       0.00000000      -0.00184502       0.00528850       0.00531267
S        7.45950069       5.01203231       5.04274155        2       0.00000000      -0.00546514      -0.00057696       0.00595596
H        4.60376374       5.23489989       3.77515360        0       0.00000000       0.42295855       0.09684240      -0.09943973
56
Lattice="9.876 0.0 0.0 0.0 9.876 0.0 0.0 0.0 9.876" Properties=species:S:1:pos:R:3:spacegroup_kinds:I:1:initial_magmoms:R:1:forces:R:3 meta_mineral=greigite meta_method=PBE_U0_ONCV meta_U_eV=0.0 meta_nspin=2 meta_spacegroup="F d -3 m" meta_unit_cell=conventional meta_image_index=3 meta_rc=0.375 meta_reaction=V_Fe_16d_SH_hop_cation_edge meta_barrier_meV=566.829 meta_source_file=results/dft_datasets/2026-09-21_greigite_two_stream/greig_cation/final_03.xyz meta_note="V_Fe(16d) + S-H hop along the edge SHARED with an occupied Fe_oct. Contrast case: 2.40x the channel barrier." energy=-88090.23366648016 pbc="T T T"
Fe       1.21382362       1.22433679       1.21605402        0       5.00000000      -0.00622618       0.00309149      -0.00179129
Fe       6.19491953       1.22338307       6.19646400        0       5.00000000      -0.00318097      -0.00466115       0.00013395
Fe       1.26816694       6.13746723       6.14831793        0       5.00000000      -0.04359820      -0.02498032       0.01369061
Fe       6.16113145       6.17119894       1.27903510        0       5.00000000       0.03804281       0.04443586      -0.01989340
Fe       8.61133554       3.69660416       3.74667825        0       5.00000000      -0.01584237      -0.01181191       0.00456628
Fe       8.67816288       8.65888110       8.68167702        0       5.00000000      -0.00600764      -0.00284313       0.00043169
Fe       3.74278100       3.70195156       8.62083005        0       5.00000000      -0.00650669      -0.00056590       0.00718906
Fe       3.71631826       8.60753943       3.72390038        0       5.00000000      -0.01796224       0.01036000       0.00096571
Fe       2.52172737       7.43787486      -0.03970039        1      -4.00000000       0.00672961       0.01060400      -0.01023865
Fe       7.44296756      -0.04370484       2.52236267        1      -4.00000000       0.00630049      -0.00734204       0.00341005
Fe       0.04009367       2.47261416       7.37322855        1      -4.00000000      -0.00669387      -0.00012496      -0.00399138
Fe       4.94820031       0.00315099       0.01298690        1      -4.00000000      -0.00229985      -0.00020775      -0.00599041
Fe       2.56045101       2.50828632       4.86650483        1      -4.00000000      -0.04648606       0.09441039      -0.00089320
Fe       7.36672362       4.98058538       7.37383554        1      -4.00000000      -0.01024970       0.00398007       0.00615753
Fe      -0.03924597       7.43898849       2.52483526        1      -4.00000000      -0.01075004       0.01357028       0.01273545
Fe       0.02988763       4.94465820       0.03226213        1      -4.00000000       0.02222333       0.01423903       0.02888352
Fe       7.35576663       7.33962071       5.02217194        1      -4.00000000      -0.00792903       0.00054662       0.00310409
Fe       2.52076448      -0.04809294       7.43928471        1      -4.00000000       0.00074922      -0.01783086      -0.00082532
Fe       4.87120820       2.42005710       2.59651715        1      -4.00000000       0.00415516      -0.09915871       0.03281345
Fe       0.01900150      -0.00052211       4.95188735        1      -4.00000000       0.00608580      -0.00956116       0.00366099
Fe       7.37415837       2.47164686       0.04205021        1      -4.00000000      -0.00254642      -0.00144419      -0.00212682
Fe       2.24046394       5.01788751       2.29000812        1      -4.00000000      -0.03072648      -0.00326993       0.06668773
Fe       5.01998937       7.33609945       7.35806886        1      -4.00000000      -0.00172650      -0.00844582      -0.00316863
S        2.45812061       2.51854793       2.46305104        2       0.00000000      -0.00697977       0.00403637       0.00669850
S        4.92737319       9.81787852       7.48779213        2       0.00000000      -0.00041703      -0.00025814       0.00264207
S        9.83477632       7.45640418       4.91464601        2       0.00000000      -0.00530316      -0.00031830       0.00776216
S        7.45729197       4.90574829       9.85134992        2       0.00000000       0.00241632       0.00569191       0.00535252
S       -0.06300188       4.98486932       2.42244697        2       0.00000000      -0.02357419      -0.00001620       0.01080352
S        7.41832060       7.38601014       7.42178267        2       0.00000000      -0.00736698      -0.00332264       0.00093948
S        4.97900958       2.42261037       0.07762401        2       0.00000000      -0.00180106       0.00908037       0.01950465
S        2.42965573       0.03678486       4.98752125        2       0.00000000      -0.00465601       0.02002401       0.00506584
S        2.54002000       7.43168823       7.43567546        2       0.00000000      -0.01196103      -0.01108145      -0.00223197
S        4.73191610       4.85548841       2.53725066        2       0.00000000      -0.05721142      -0.03624510      -0.03250800
S        9.81974976       2.52367586       9.82519544        2       0.00000000      -0.00825067       0.00936781       0.00304084
S        7.48789874       9.81406545       4.92915241        2       0.00000000       0.00216590      -0.00793134       0.00306604
S        0.08218116       0.04036286       7.38604052        2       0.00000000      -0.00316066       0.00045380       0.00412122
S        7.34191630       2.40313452       2.45413261        2       0.00000000      -0.00715358      -0.01531169       0.00317146
S        5.03339597       7.47408208       5.03911929        2       0.00000000      -0.01306866       0.01590227      -0.00245952
S        2.42017699       4.98805582      -0.03917355        2       0.00000000       0.00427112       0.00519697       0.02733263
S        7.47660556       2.51446751       7.47976436        2       0.00000000      -0.00751405       0.00267883      -0.00088857
S        9.83819834       9.83505615       2.51654043        2       0.00000000      -0.00697849       0.00455291      -0.00062118
S        4.91579065       7.45594710       9.83643455        2       0.00000000       0.00901609       0.00032756      -0.00296140
S        2.44027443       4.85329546       4.79485789        2       0.00000000      -0.20551702      -0.02948747       0.07651037
S        5.03828580       5.00970925       7.46521915        2       0.00000000      -0.00300485      -0.00863736      -0.00572045
S        2.39539965       7.39051459       2.40090273        2       0.00000000      -0.00730219      -0.00010284       0.00392093
S        0.05974822       2.40937242       4.97918858        2       0.00000000      -0.02021041      -0.01731021      -0.00111972
S        7.37983833       0.04023689       0.08465982        2       0.00000000      -0.00758167       0.00007919       0.00098216
S        7.43172217       7.43567205       2.55285170        2       0.00000000      -0.01195023      -0.00272588       0.01504558
S        9.84156316       4.89710920       7.47197901        2       0.00000000      -0.01598712      -0.01365590       0.03300551
S        4.89161199       2.36109345       4.88855823        2       0.00000000      -0.00123002       0.00348359      -0.00516869
S        2.51627708       9.83434394       9.84054969        2       0.00000000      -0.00041703       0.00359286      -0.00194093
S        4.98155196       0.02001418       2.43051008        2       0.00000000      -0.00930919      -0.01741357      -0.00232891
S        2.45081213       2.40445674       7.34658058        2       0.00000000      -0.00385357      -0.01351886       0.00461539
S        0.06816358       7.36213426       0.07324156        2       0.00000000      -0.00198566       0.00686844       0.00860857
S        7.46496998       5.01374890       5.04229118        2       0.00000000      -0.00937553       0.00130638       0.00602538
H        4.28136104       5.15974032       3.84984862        0       0.00000000       0.57969789       0.08170400      -0.32577728
56
Lattice="9.876 0.0 0.0 0.0 9.876 0.0 0.0 0.0 9.876" Properties=species:S:1:pos:R:3:spacegroup_kinds:I:1:initial_magmoms:R:1:forces:R:3 meta_mineral=greigite meta_method=PBE_U0_ONCV meta_U_eV=0.0 meta_nspin=2 meta_spacegroup="F d -3 m" meta_unit_cell=conventional meta_image_index=4 meta_rc=0.5 meta_reaction=V_Fe_16d_SH_hop_cation_edge meta_barrier_meV=566.829 meta_source_file=results/dft_datasets/2026-09-21_greigite_two_stream/greig_cation/final_04.xyz meta_note="V_Fe(16d) + S-H hop along the edge SHARED with an occupied Fe_oct. Contrast case: 2.40x the channel barrier." energy=-88090.02961048945 pbc="T T T"
Fe       1.21436814       1.22427125       1.21436832        0       5.00000000       0.00235590       0.01141056       0.00235590
Fe       6.19744627       1.22168947       6.19744730        0       5.00000000       0.00096442      -0.00687282       0.00096442
Fe       1.28576698       6.14867687       6.14587097        0       5.00000000      -0.01210681       0.00190956       0.00944880
Fe       6.14587106       6.14867761       1.28576562        0       5.00000000       0.00944880       0.00190956      -0.01210681
Fe       8.61603065       3.69885430       3.74585005        0       5.00000000      -0.00474703      -0.00641902       0.00341005
Fe       8.67983645       8.65912063       8.67983780        0       5.00000000      -0.00115185      -0.00333935      -0.00115185
Fe       3.74585070       3.69885382       8.61602581        0       5.00000000       0.00341005      -0.00641902      -0.00474703
Fe       3.72063555       8.60584602       3.72063446        0       5.00000000      -0.00889345       0.00532244      -0.00889345
Fe       2.52383027       7.44006364      -0.04035991        1      -4.00000000       0.01244542       0.01571690      -0.01116862
Fe       7.44040853      -0.04592136       2.52144643        1      -4.00000000       0.00069780      -0.01260895       0.00213941
Fe       0.04194637       2.47382290       7.37330177        1      -4.00000000      -0.00288966       0.00218595      -0.00355121
Fe       4.94988319       0.00018283       0.01634583        1      -4.00000000      -0.00006094      -0.00772128       0.00157891
Fe       2.58365692       2.46958603       4.86507372        1      -4.00000000       0.00532938       0.01315736      -0.00604878
Fe       7.37203619       4.97976200       7.37203627        1      -4.00000000       0.00125470       0.00109889       0.00125470
Fe      -0.04035795       7.44006373       2.52383089        1      -4.00000000      -0.01116862       0.01571690       0.01244542
Fe       0.03125757       4.94523802       0.03125584        1      -4.00000000       0.02747609       0.01454756       0.02747609
Fe       7.35727380       7.33811708       5.02174122        1      -4.00000000      -0.00273180      -0.00256108       0.00267832
Fe       2.52144403      -0.04592237       7.44040825        1      -4.00000000       0.00213941      -0.01260895       0.00069780
Fe       4.86507332       2.46959361       2.58365932        1      -4.00000000      -0.00604878       0.01315736       0.00532938
Fe       0.01634716       0.00018248       4.94988321        1      -4.00000000       0.00157891      -0.00772128      -0.00006094
Fe       7.37330190       2.47382467       0.04194540        1      -4.00000000      -0.00355121       0.00218595      -0.00288966
Fe       2.25541376       5.01882177       2.25540923        1      -4.00000000      -0.00559652      -0.00014758      -0.00559652
Fe       5.02174187       7.33811737       7.35727417        1      -4.00000000       0.00267832      -0.00256108      -0.00273180
S        2.45917863       2.52200301       2.45918094        2       0.00000000      -0.00883277       0.00673449      -0.00883277
S        4.92843072       9.81636144       7.48881642        2       0.00000000       0.00054405      -0.00369699       0.00578087
S        9.83749231       7.45504332       4.91560150        2       0.00000000       0.00164551      -0.00412379       0.00870884
S        7.46291753       4.90293038       9.84958584        2       0.00000000       0.00963598       0.00106444       0.00524197
S       -0.05274344       4.98673158       2.42330902        2       0.00000000      -0.00200675       0.00308687       0.01124626
S        7.42037876       7.38592807       7.42038034        2       0.00000000      -0.00114594      -0.00175761      -0.00114594
S        4.97919278       2.41680686       0.07117232        2       0.00000000      -0.00190339      -0.00085515       0.00449686
S        2.43108079       0.03039096       4.98322735        2       0.00000000      -0.00291974       0.00530393      -0.00365328
S        2.54735009       7.43354256       7.43280998        2       0.00000000       0.00512112      -0.00509798      -0.00681111
S        4.76061071       4.86824041       2.54581717        2       0.00000000       0.00163111      -0.01938380      -0.00068186
S        9.82265126       2.52511062       9.82265010        2       0.00000000      -0.00411608       0.01224771      -0.00411608
S        7.48881768       9.81636164       4.92843194        2       0.00000000       0.00578087      -0.00369699       0.00054405
S        0.08359579       0.04034943       7.38273477        2       0.00000000      -0.00145242      -0.00059804      -0.00093151
S        7.34382847       2.40377624       2.45315830        2       0.00000000      -0.00187228      -0.01187953       0.00210059
S        5.03897378       7.47985385       5.03897308        2       0.00000000      -0.00168047       0.03116691      -0.00168047
S        2.42330895       4.98673167      -0.05274829        2       0.00000000       0.01124626       0.00308687      -0.00200675
S        7.47824592       2.51467212       7.47824666        2       0.00000000      -0.00120559       0.00352704      -0.00120559
S        9.83930661       9.83510964       2.51616701        2       0.00000000      -0.00538543       0.00289943       0.00061578
S        4.91560146       7.45504218       9.83749226        2       0.00000000       0.00870884      -0.00412379       0.00164551
S        2.54581810       4.86824189       4.76061014        2       0.00000000      -0.00068186      -0.01938380       0.00163111
S        5.04136554       5.01229985       7.46625804        2       0.00000000       0.00133286      -0.00300665      -0.00414102
S        2.39627129       7.39088577       2.39627194        2       0.00000000      -0.00480976       0.00244692      -0.00480976
S        0.07117441       2.41680822       4.97919360        2       0.00000000       0.00449686      -0.00085515      -0.00190339
S        7.38273315       0.04035133       0.08359667        2       0.00000000      -0.00093151      -0.00059804      -0.00145242
S        7.43280838       7.43354163       2.54734711        2       0.00000000      -0.00681111      -0.00509798       0.00512112
S        9.84958590       4.90292930       7.46291721        2       0.00000000       0.00524197       0.00106444       0.00963598
S        4.89218997       2.35455595       4.89218961        2       0.00000000       0.00197204      -0.01019442       0.00197204
S        2.51616574       9.83510923       9.83930502        2       0.00000000       0.00061578       0.00289943      -0.00538543
S        4.98322645       0.03039381       2.43107969        2       0.00000000      -0.00365328       0.00530393      -0.00291974
S        2.45315667       2.40377537       7.34382680        2       0.00000000       0.00210059      -0.01187953      -0.00187228
S        0.07061280       7.36150883       0.07061175        2       0.00000000       0.00211833       0.00716772       0.00211833
S        7.46625993       5.01229981       5.04136505        2       0.00000000      -0.00414102      -0.00300665       0.00133286
H        3.99965850       5.11762227       3.99967777        0       0.00000000      -0.01947431      -0.00810335      -0.01947431
56
Lattice="9.876 0.0 0.0 0.0 9.876 0.0 0.0 0.0 9.876" Properties=species:S:1:pos:R:3:spacegroup_kinds:I:1:initial_magmoms:R:1:forces:R:3 meta_mineral=greigite meta_method=PBE_U0_ONCV meta_U_eV=0.0 meta_nspin=2 meta_spacegroup="F d -3 m" meta_unit_cell=conventional meta_image_index=5 meta_rc=0.625 meta_reaction=V_Fe_16d_SH_hop_cation_edge meta_barrier_meV=566.829 meta_source_file=results/dft_datasets/2026-09-21_greigite_two_stream/greig_cation/final_05.xyz meta_note="V_Fe(16d) + S-H hop along the edge SHARED with an occupied Fe_oct. Contrast case: 2.40x the channel barrier." energy=-88090.23368226275 pbc="T T T"
Fe       1.21605119       1.22433665       1.21382096        0       5.00000000      -0.00180491       0.00309124      -0.00620690
Fe       6.19646110       1.22338346       6.19492078        0       5.00000000       0.00014167      -0.00464444      -0.00318791
Fe       1.27903762       6.17120028       6.16113341        0       5.00000000      -0.01988954       0.04438701       0.03802096
Fe       6.14831514       6.13746530       1.26816810        0       5.00000000       0.01372558      -0.02493044      -0.04360848
Fe       8.62083333       3.70195278       3.74278114        0       5.00000000       0.00718469      -0.00057053      -0.00653369
Fe       8.68167806       8.65888085       8.67816451        0       5.00000000       0.00040675      -0.00285778      -0.00603129
Fe       3.74667918       3.69660535       8.61132876        0       5.00000000       0.00454931      -0.01182913      -0.01579763
Fe       3.72390356       8.60753891       3.71631720        0       5.00000000       0.00091454       0.01032786      -0.01798847
Fe       2.52483281       7.43898610      -0.03924322        1      -4.00000000       0.01274496       0.01355074      -0.01076264
Fe       7.43928839      -0.04809480       2.52076725        1      -4.00000000      -0.00083895      -0.01783986       0.00074768
Fe       0.04204995       2.47164732       7.37415739        1      -4.00000000      -0.00213504      -0.00144599      -0.00255311
Fe       4.95189167      -0.00052013       0.01900348        1      -4.00000000       0.00365405      -0.00955396       0.00609531
Fe       2.59651352       2.42005541       4.87120984        1      -4.00000000       0.03281602      -0.09917876       0.00415182
Fe       7.37383532       4.98058577       7.36672112        1      -4.00000000       0.00616808       0.00399292      -0.01023222
Fe      -0.03970090       7.43787726       2.52173042        1      -4.00000000      -0.01023890       0.01059629       0.00673578
Fe       0.03226519       4.94465793       0.02988775        1      -4.00000000       0.02889174       0.01424340       0.02222333
Fe       7.35807006       7.33609932       5.01998772        1      -4.00000000      -0.00314215      -0.00842885      -0.00172572
Fe       2.52235699      -0.04370242       7.44296457        1      -4.00000000       0.00343756      -0.00735747       0.00630229
Fe       4.86650409       2.50828912       2.56045296        1      -4.00000000      -0.00090991       0.09439831      -0.04650431
Fe       0.01298361       0.00314812       4.94819792        1      -4.00000000      -0.00599478      -0.00022291      -0.00230757
Fe       7.37322945       2.47261256       0.04009501        1      -4.00000000      -0.00401478      -0.00012316      -0.00668770
Fe       2.29000877       5.01788987       2.24046369        1      -4.00000000       0.06669159      -0.00329230      -0.03073908
Fe       5.02217437       7.33962019       7.35576457        1      -4.00000000       0.00312518       0.00056333      -0.00791257
S        2.46304742       2.51854512       2.45812198        2       0.00000000       0.00671829       0.00402815      -0.00699880
S        4.92914991       9.81406611       7.48789967        2       0.00000000       0.00305627      -0.00793391       0.00216667
S        9.83643901       7.45594619       4.91579251        2       0.00000000      -0.00300073       0.00034504       0.00900195
S        7.47198239       4.89711014       9.84156446        2       0.00000000       0.03301451      -0.01364639      -0.01599586
S       -0.03917008       4.98805602       2.42017670        2       0.00000000       0.02728403       0.00520880       0.00428809
S        7.42178237       7.38601054       7.41832000        2       0.00000000       0.00096828      -0.00332829      -0.00735387
S        4.97918698       2.40937221       0.05974598        2       0.00000000      -0.00112049      -0.01728913      -0.02021093
S        2.43050840       0.02001134       4.98155075        2       0.00000000      -0.00232299      -0.01739531      -0.00931202
S        2.55285433       7.43567053       7.43172192        2       0.00000000       0.01507361      -0.00268912      -0.01193403
S        4.79486048       4.85329386       2.44027013        2       0.00000000       0.07649572      -0.02951472      -0.20547151
S        9.82519607       2.52367440       9.81974861        2       0.00000000       0.00304007       0.00939892      -0.00824604
S        7.48779129       9.81787767       4.92737640        2       0.00000000       0.00263358      -0.00025377      -0.00041909
S        0.08465817       0.04023461       7.37983574        2       0.00000000       0.00096905       0.00010490      -0.00759298
S        7.34658196       2.40445655       2.45081323        2       0.00000000       0.00463107      -0.01350960      -0.00383300
S        5.03912173       7.47408102       5.03339314        2       0.00000000      -0.00248266       0.01589122      -0.01309386
S        2.42244801       4.98487005      -0.06300517        2       0.00000000       0.01080558      -0.00000463      -0.02357187
S        7.47976463       2.51446870       7.47660563        2       0.00000000      -0.00087135       0.00266623      -0.00753410
S        9.84055136       9.83434472       2.51627712        2       0.00000000      -0.00193784       0.00360032      -0.00042243
S        4.91464301       7.45640501       9.83477955        2       0.00000000       0.00776370      -0.00033630      -0.00532475
S        2.53724296       4.85548470       4.73191423        2       0.00000000      -0.03250209      -0.03621707      -0.05718673
S        5.04229309       5.01375070       7.46496912        2       0.00000000       0.00602512       0.00132155      -0.00936910
S        2.40090135       7.39051387       2.39540076        2       0.00000000       0.00395950      -0.00007713      -0.00730708
S        0.07762364       2.42261078       4.97900668        2       0.00000000       0.01950207       0.00902509      -0.00179386
S        7.38604076       0.04036399       0.08218447        2       0.00000000       0.00412405       0.00043066      -0.00318225
S        7.43567582       7.43168777       2.54002027        2       0.00000000      -0.00223557      -0.01106963      -0.01196797
S        9.85135069       4.90574726       7.45729070        2       0.00000000       0.00533118       0.00570039       0.00242249
S        4.88855661       2.36109355       4.89161320        2       0.00000000      -0.00516817       0.00348539      -0.00121947
S        2.51654057       9.83505586       9.83819478        2       0.00000000      -0.00063506       0.00456448      -0.00696178
S        4.98752198       0.03678837       2.42965535        2       0.00000000       0.00507202       0.02002015      -0.00465061
S        2.45413056       2.40313560       7.34191397        2       0.00000000       0.00318483      -0.01531632      -0.00714818
S        0.07324194       7.36213498       0.06816298        2       0.00000000       0.00861911       0.00685199      -0.00194864
S        7.46522299       5.00971213       5.03828427        2       0.00000000      -0.00571736      -0.00864096      -0.00301282
H        3.84984196       5.15974228       4.28137832        0       0.00000000      -0.32576031       0.08170374       0.57968683
56
Lattice="9.876 0.0 0.0 0.0 9.876 0.0 0.0 0.0 9.876" Properties=species:S:1:pos:R:3:spacegroup_kinds:I:1:initial_magmoms:R:1:forces:R:3 meta_mineral=greigite meta_method=PBE_U0_ONCV meta_U_eV=0.0 meta_nspin=2 meta_spacegroup="F d -3 m" meta_unit_cell=conventional meta_image_index=6 meta_rc=0.75 meta_reaction=V_Fe_16d_SH_hop_cation_edge meta_barrier_meV=566.829 meta_source_file=results/dft_datasets/2026-09-21_greigite_two_stream/greig_cation/final_06.xyz meta_note="V_Fe(16d) + S-H hop along the edge SHARED with an occupied Fe_oct. Contrast case: 2.40x the channel barrier." energy=-88090.45546320468 pbc="T T T"
Fe       1.22092458       1.22390334       1.21221833        0       5.00000000       0.00180440       0.00188488      -0.00459482
Fe       6.19445840       1.22612820       6.18734493        0       5.00000000      -0.00648741       0.00074228      -0.01148512
Fe       1.25004144       6.18711334       6.17832540        0       5.00000000      -0.03599390       0.00834246       0.01996667
Fe       6.15735855       6.13668162       1.24760501        0       5.00000000       0.00995557      -0.00939378      -0.02958800
Fe       8.63250478       3.70541573       3.73308654        0       5.00000000       0.00891504      -0.00112666      -0.01047930
Fe       8.68458458       8.65712322       8.67231036        0       5.00000000       0.00019309      -0.00395539      -0.00818973
Fe       3.74711719       3.69387268       8.60448481        0       5.00000000       0.00225049      -0.00740915      -0.01880711
Fe       3.73090101       8.61259515       3.70696257        0       5.00000000       0.00210805       0.00836508      -0.01708704
Fe       2.52798573       7.43529196      -0.04074599        1      -4.00000000       0.00997537       0.00926831      -0.01702636
Fe       7.43920558      -0.04803494       2.51482967        1      -4.00000000       0.00118579      -0.01726933       0.00178203
Fe       0.03914148       2.46754203       7.37459341        1      -4.00000000      -0.00702888      -0.00177355      -0.00568857
Fe       4.95543392      -0.00220579       0.01647959        1      -4.00000000       0.00611203      -0.00730399       0.00000926
Fe       2.59946884       2.38124949       4.88397654        1      -4.00000000       0.01031321      -0.04644878       0.01049576
Fe       7.37080026       4.98341422       7.35435438        1      -4.00000000       0.00390293       0.00454957      -0.01237909
Fe      -0.03263952       7.43148435       2.51229915        1      -4.00000000      -0.01066236       0.00696280       0.00436933
Fe       0.02827492       4.93986090       0.02253604        1      -4.00000000       0.02240716       0.01322241       0.01997079
Fe       7.35778347       7.33264061       5.01340575        1      -4.00000000      -0.00195738      -0.00872838      -0.00830106
Fe       2.52610371      -0.04406469       7.44354485        1      -4.00000000       0.00715152      -0.01569993       0.00237956
Fe       4.86982176       2.53072009       2.53712370        1      -4.00000000       0.00611537       0.03646081      -0.03659477
Fe       0.00961889       0.00917510       4.94265415        1      -4.00000000      -0.00550885       0.00104181      -0.00246954
Fe       7.37693909       2.46823936       0.03443990        1      -4.00000000      -0.00114748      -0.00181468      -0.00964009
Fe       2.34921896       5.01484684       2.24721221        1      -4.00000000       0.06379524       0.00201317      -0.00000489
Fe       5.02335560       7.33909029       7.34919281        1      -4.00000000      -0.00044969       0.00167919      -0.01093053
S        2.46961733       2.51222205       2.46237590        2       0.00000000       0.00712273      -0.00384200      -0.00236464
S        4.93131168       9.81197981       7.48209704        2       0.00000000       0.00427677      -0.00473674      -0.00487635
S        9.82874172       7.46169053       4.91128521        2       0.00000000      -0.01044434       0.00202449       0.00149921
S        7.47840806       4.89160623       9.83097453        2       0.00000000       0.02021864      -0.01109945      -0.01033866
S       -0.01266396       4.98842421       2.41225359        2       0.00000000       0.03073522       0.00561323       0.00167610
S        7.42302342       7.38571612       7.41189865        2       0.00000000      -0.00106238      -0.00195224      -0.00991417
S        4.98044532       2.40366986       0.04673432        2       0.00000000      -0.00086081      -0.00617425      -0.01801186
S        2.43038159       0.00516767       4.97869250        2       0.00000000      -0.00216127      -0.01746036      -0.00370162
S        2.55437614       7.43407947       7.42748366        2       0.00000000       0.00322005      -0.01034046      -0.01257424
S        4.79792645       4.84924294       2.37614702        2       0.00000000       0.01001959      -0.00396773      -0.07146253
S        9.82980404       2.51831553       9.81607174        2       0.00000000       0.00450894       0.00589091      -0.00650052
S        7.48560545       9.81849851       4.92200154        2       0.00000000      -0.00326504      -0.00396670      -0.00295985
S        0.08655164       0.03925573       7.37429937        2       0.00000000       0.00046023      -0.00189542      -0.00627581
S        7.35179123       2.40752762       2.44474316        2       0.00000000       0.00416262      -0.00484010      -0.00799176
S        5.03652958       7.46172024       5.02231991        2       0.00000000      -0.00719189      -0.00605418      -0.01699602
S        2.42168758       4.98141274      -0.06774264        2       0.00000000       0.01235775       0.00221115      -0.01427014
S        7.48026795       2.51346255       7.47124101        2       0.00000000      -0.00254102       0.00076156      -0.01266654
S        9.84337290       9.83257060       2.51222925        2       0.00000000      -0.00261841       0.00294777      -0.00064638
S        4.91743619       7.45750255       9.82812808        2       0.00000000       0.00481362      -0.00215638      -0.00819771
S        2.46519409       4.84574522       4.73318320        2       0.00000000      -0.07757301      -0.00877440      -0.00672472
S        5.04273996       5.01202915       7.45949440        2       0.00000000       0.00600893      -0.00052656      -0.00546822
S        2.41128568       7.39049054       2.39359093        2       0.00000000       0.00336763       0.00331107      -0.01109997
S        0.07981333       2.42297444       4.97762168        2       0.00000000       0.01026333       0.00135806      -0.00477840
S        7.39050980       0.03948670       0.07562487        2       0.00000000       0.00481285      -0.00161182      -0.00467478
S        7.44122661       7.43002037       2.52845132        2       0.00000000      -0.00155783      -0.01233487      -0.00952105
S        9.84096304       4.90435395       7.45810834        2       0.00000000      -0.01033069      -0.00217464       0.01364536
S        4.88545100       2.37600410       4.88649878        2       0.00000000      -0.00486530       0.01198237      -0.01153885
S        2.51842551       9.83349106       9.83560414        2       0.00000000       0.00223275       0.00291486      -0.00651852
S        4.99351214       0.04417548       2.42441730        2       0.00000000       0.00790177       0.01075107      -0.00690110
S        2.45380646       2.39935536       7.34097969        2       0.00000000      -0.00034761      -0.01300695      -0.00663010
S        0.07858125       7.36170521       0.06218670        2       0.00000000       0.00537746       0.00518900      -0.00177612
S        7.46712935       5.00595313       5.02881825        2       0.00000000      -0.00453825      -0.00849904      -0.01010958
H        3.77514873       5.23489894       4.60376569        0       0.00000000      -0.09945284       0.09685011       0.42296215
56
Lattice="9.876 0.0 0.0 0.0 9.876 0.0 0.0 0.0 9.876" Properties=species:S:1:pos:R:3:spacegroup_kinds:I:1:initial_magmoms:R:1:forces:R:3 meta_mineral=greigite meta_method=PBE_U0_ONCV meta_U_eV=0.0 meta_nspin=2 meta_spacegroup="F d -3 m" meta_unit_cell=conventional meta_image_index=7 meta_rc=0.875 meta_reaction=V_Fe_16d_SH_hop_cation_edge meta_barrier_meV=566.829 meta_source_file=results/dft_datasets/2026-09-21_greigite_two_stream/greig_cation/final_07.xyz meta_note="V_Fe(16d) + S-H hop along the edge SHARED with an occupied Fe_oct. Contrast case: 2.40x the channel barrier." energy=-88090.57300509025 pbc="T T T"
Fe       1.22992039       1.22400127       1.21411053        0       5.00000000       0.00275571       0.00094051      -0.00179926
Fe       6.18834035       1.22702289       6.17152487        0       5.00000000      -0.00481465       0.00399935      -0.00932899
Fe       1.20596474       6.20149135       6.19347738        0       5.00000000      -0.01873177      -0.00142002       0.00330721
Fe       6.16534491       6.14339821       1.23228830        0       5.00000000       0.00254899      -0.00080321      -0.01145838
Fe       8.65141627       3.70841340       3.71755857        0       5.00000000       0.00201497       0.00301436      -0.00565360
Fe       8.68343771       8.65524551       8.66164054        0       5.00000000       0.00028231      -0.00467478      -0.00614082
Fe       3.74194930       3.69245484       8.60174996        0       5.00000000      -0.00361214      -0.00106109      -0.00352138
Fe       3.73566601       8.61857527       3.69736397        0       5.00000000       0.00088780       0.00523631      -0.00636040
Fe       2.52668461       7.42958841      -0.04537952        1      -4.00000000       0.00446035       0.00463107      -0.00845662
Fe       7.43426220      -0.04075772       2.50216866        1      -4.00000000       0.00328227      -0.00651209      -0.00012161
Fe       0.02228482       2.46983488       7.38181023        1      -4.00000000      -0.00008305      -0.00630769      -0.00638713
Fe       4.95546498      -0.00455499       0.00359431        1      -4.00000000       0.00816454       0.00176660      -0.00198283
Fe       2.58854244       2.36616351       4.90436416        1      -4.00000000      -0.00631951      -0.00707825       0.01067522
Fe       7.35839671       4.99291171       7.33368744        1      -4.00000000      -0.00116420       0.00076285      -0.00617039
Fe      -0.01997192       7.41818845       2.49359337        1      -4.00000000      -0.00339411       0.00279350       0.00063121
Fe       0.00956160       4.92963322       0.00647351        1      -4.00000000       0.00245180       0.00314909       0.00713867
Fe       7.35413709       7.32560041       5.00017383        1      -4.00000000      -0.00265878      -0.00162417      -0.00569242
Fe       2.52916579      -0.04978836       7.43872716        1      -4.00000000       0.00723688      -0.00968457       0.00089963
Fe       4.88457991       2.52769297       2.51655160        1      -4.00000000       0.00277062       0.00280353      -0.01162833
Fe       0.00788633       0.01683584       4.93793465        1      -4.00000000      -0.00191547       0.00269374      -0.00143828
Fe       7.39027997       2.47091165       0.01541622        1      -4.00000000       0.00151284      -0.00425569      -0.00749399
Fe       2.44396766       4.99976837       2.28687840        1      -4.00000000       0.03248075       0.00371910       0.00440121
Fe       5.01983954       7.33692808       7.34057726        1      -4.00000000      -0.00548288       0.00148867      -0.00742432
S        2.48292749       2.50567733       2.47333261        2       0.00000000       0.00341057      -0.00203194       0.00279582
S        4.93030467       9.81000311       7.46893217        2       0.00000000       0.00334912      -0.00024991      -0.00615394
S        9.81458455       7.47057390       4.90227435        2       0.00000000      -0.00488381       0.00119479      -0.00202423
S        7.47496661       4.89090702       9.82152217        2       0.00000000       0.00359954      -0.00443438      -0.00384277
S        0.03077944       4.98802210       2.40556513        2       0.00000000       0.01710863       0.00329615       0.00383711
S        7.41903479       7.38818603       7.39876495        2       0.00000000      -0.00357229      -0.00128812      -0.00596753
S        4.98448094       2.40303413       0.03536483        2       0.00000000      -0.00020389       0.00021803      -0.00711270
S        2.43005365      -0.00703525       4.97609672        2       0.00000000      -0.00026894      -0.00545640       0.00125341
S        2.54693206       7.42806829       7.42202256        2       0.00000000      -0.00259270      -0.00734873      -0.00695226
S        4.81728066       4.85657403       2.36789076        2       0.00000000       0.00281073       0.00130304      -0.00726362
S        9.83656773       2.50958986       9.81538017        2       0.00000000       0.00209108      -0.00018152      -0.00375715
S        7.48125047       9.81779974       4.90932089        2       0.00000000      -0.00270609      -0.00083175      -0.00308841
S        0.08450218       0.04091266       7.36768756        2       0.00000000       0.00163651      -0.00397775      -0.00367128
S        7.36441906       2.41234002       2.43106558        2       0.00000000       0.00167893       0.00098370      -0.00531138
S        5.03107820       7.45025751       5.00960018        2       0.00000000      -0.00526202      -0.00695638      -0.00945472
S        2.42196098       4.97810600      -0.05512163        2       0.00000000       0.00233302       0.00226103      -0.00275545
S        7.47279389       2.51355138       7.45727502        2       0.00000000      -0.00020337      -0.00085875      -0.00832832
S        9.84547807       9.82896577       2.50603264        2       0.00000000       0.00135214       0.00102099      -0.00007173
S        4.91971102       7.45676940       9.81692956        2       0.00000000       0.00196407       0.00068006      -0.00560680
S        2.42884040       4.85302654       4.77736938        2       0.00000000      -0.00504579       0.00785189       0.01245082
S        5.03769792       5.00725194       7.45153887        2       0.00000000      -0.00048208      -0.00081581       0.00195918
S        2.42452437       7.38777493       2.39063142        2       0.00000000       0.00327687       0.00449994      -0.00692784
S        0.08083852       2.42155372       4.97676327        2       0.00000000       0.00023577       0.00149433      -0.00441047
S        7.39117407       0.04087879       0.06215613        2       0.00000000       0.00487533      -0.00234330      -0.00393147
S        7.44904506       7.43099674       2.51603667        2       0.00000000      -0.00081555      -0.00596984      -0.00598039
S        9.82001115       4.90209649       7.46103176        2       0.00000000      -0.00577418      -0.00503293       0.00509618
S        4.88116988       2.38907187       4.87344950        2       0.00000000      -0.00492829       0.00967583      -0.00725205
S        2.51901749       9.83065735       9.83043175        2       0.00000000       0.00348847       0.00192807      -0.00313032
S        4.99786007       0.04395946       2.41279385        2       0.00000000       0.00532244       0.00250991      -0.00327019
S        2.44665491       2.39475470       7.34518288        2       0.00000000      -0.00103898      -0.00472029       0.00075282
S        0.07994550       7.36092695       0.05159928        2       0.00000000       0.00202166       0.00142671      -0.00145884
S        7.47174987       5.00010201       5.01011092        2       0.00000000      -0.00725308      -0.00286061      -0.00675197
H        3.71542901       5.29191800       4.92111456        0       0.00000000      -0.03819734       0.02143734       0.17033610
56
Lattice="9.876 0.0 0.0 0.0 9.876 0.0 0.0 0.0 9.876" Properties=species:S:1:pos:R:3:spacegroup_kinds:I:1:initial_magmoms:R:1:forces:R:3 meta_mineral=greigite meta_method=PBE_U0_ONCV meta_U_eV=0.0 meta_nspin=2 meta_spacegroup="F d -3 m" meta_unit_cell=conventional meta_image_index=8 meta_rc=1.0 meta_reaction=V_Fe_16d_SH_hop_cation_edge meta_barrier_meV=566.829 meta_source_file=results/dft_datasets/2026-09-21_greigite_two_stream/greig_cation/final_08.xyz meta_note="V_Fe(16d) + S-H hop along the edge SHARED with an occupied Fe_oct. Contrast case: 2.40x the channel barrier." energy=-88090.59643967009 pbc="T T T"
Fe       1.22268845       1.22320289       1.22320289        0       5.00000000       0.00426623       0.00470949       0.00470949
Fe       6.16816475       1.23091604       6.16305280        0       5.00000000       0.00454571      -0.00527590      -0.00339103
Fe       1.18120702       6.20863236       6.20863236        0       5.00000000      -0.04484364       0.00681317       0.00681317
Fe       6.16816475       6.16305280       1.23091604        0       5.00000000       0.00454571      -0.00339103      -0.00527590
Fe       8.65344091       3.71682707       3.71682707        0       5.00000000       0.01963192      -0.01409402      -0.01409402
Fe       8.67213119       8.66010717       8.66010717        0       5.00000000       0.00151387      -0.00194273      -0.00194273
Fe       3.72983167       3.70083806       8.61655194        0       5.00000000      -0.01551789      -0.02087941       0.01215309
Fe       3.72983167       8.61655194       3.70083806        0       5.00000000      -0.01551789       0.01215309      -0.02087941
Fe       2.50647792       7.43073093      -0.04151862        1      -4.00000000       0.02536985       0.01252076       0.00901017
Fe       7.40420673      -0.00373626       2.48456483        1      -4.00000000      -0.00318148      -0.01154657       0.00785961
Fe      -0.00715502       2.48428567       7.40069839        1      -4.00000000       0.00660285      -0.01438121      -0.00438913
Fe       4.94283153      -0.00095927      -0.00095927        1      -4.00000000       0.00988923       0.00487481       0.00487481
Fe       2.53247959       2.34442275       4.95531979        1      -4.00000000      -0.01364382       0.00169230       0.00028179
Fe       7.34844377       4.99498993       7.32906246        1      -4.00000000      -0.01969311       0.01289203       0.00231656
Fe      -0.00715502       7.40069839       2.48428567        1      -4.00000000       0.00660285      -0.00438913      -0.01438121
Fe      -0.01108558       4.93066040       0.00711793        1      -4.00000000       0.00091300      -0.00467144       0.02161089
Fe       7.34844377       7.32906246       4.99498993        1      -4.00000000      -0.01969311       0.00231656       0.01289203
Fe       2.50647792      -0.04151862       7.43073093        1      -4.00000000       0.02536985       0.00901017       0.01252076
Fe       4.88040505       2.51893461       2.51893461        1      -4.00000000      -0.00434285      -0.01169955      -0.01169955
Fe      -0.01108558       0.00711793       4.93066040        1      -4.00000000       0.00091300       0.02161089      -0.00467144
Fe       7.40420673       2.48456483      -0.00373626        1      -4.00000000      -0.00318148       0.00785961      -0.01154657
Fe       2.53247959       4.95531979       2.34442275        1      -4.00000000      -0.01364382       0.00028179       0.00169230
Fe       5.00004089       7.34561020       7.34561020        1      -4.00000000       0.02376959      -0.00281639      -0.00281639
S        2.47652668       2.49553022       2.49553022        2       0.00000000       0.01799824       0.00608657       0.00608657
S        4.91005294       9.81858999       7.46660152        2       0.00000000      -0.00081118      -0.00796991      -0.00995197
S        9.80434827       7.47148688       4.90184615        2       0.00000000      -0.00271406      -0.00899578       0.01167949
S        7.46691634       4.90053528       9.82405473        2       0.00000000      -0.01123341      -0.00373041       0.00370110
S        0.06132676       4.98565683       2.41487446        2       0.00000000      -0.00932231       0.00237030       0.00724845
S        7.40797157       7.39605098       7.39605098        2       0.00000000      -0.02469519      -0.02158235      -0.02158235
S        4.98233639       2.40680137       0.04094560        2       0.00000000       0.00078059       0.01525564       0.00024837
S        2.41127331      -0.02300127       4.97855340        2       0.00000000       0.01540605      -0.00173807       0.00023500
S        2.52811704       7.43099378       7.43099378        2       0.00000000       0.00711424      -0.00411994      -0.00411994
S        4.84746090       4.86673193       2.38260224        2       0.00000000       0.00477762       0.00575541       0.02106993
S        9.83175584       2.50592178       9.82343932        2       0.00000000       0.00421455       0.00350313       0.00288169
S        7.46691634       9.82405473       4.90053528        2       0.00000000      -0.01123341       0.00370110      -0.00373041
S        0.06652993       0.05138051       7.36517628        2       0.00000000       0.00603155      -0.01502244      -0.00138634
S        7.36463805       2.42543221       2.42543221        2       0.00000000      -0.00610868       0.00174629       0.00174629
S        5.02548105       7.45779932       5.01270284        2       0.00000000       0.00179746      -0.00810335       0.00572867
S        2.41127331       4.97855340      -0.02300127        2       0.00000000       0.01540605       0.00023500      -0.00173807
S        7.45320207       2.51666077       7.44803883        2       0.00000000      -0.00506662      -0.00477428      -0.00315963
S        9.83175584       9.82343932       2.50592178        2       0.00000000       0.00421455       0.00288169       0.00350313
S        4.91005294       7.46660152       9.81858999        2       0.00000000      -0.00081118      -0.00995197      -0.00796991
S        2.41553632       4.83968614       4.83968614        2       0.00000000      -0.01178902      -0.02137872      -0.02137872
S        5.02548105       5.01270284       7.45779932        2       0.00000000       0.00179746       0.00572867      -0.00810335
S        2.42858289       7.37091707       2.39715574        2       0.00000000       0.00177997       0.00767397       0.00398855
S        0.06132676       2.41487446       4.98565683        2       0.00000000      -0.00932231       0.00724845       0.00237030
S        7.38034733       0.05244229       0.05244229        2       0.00000000       0.00241298      -0.00361934      -0.00361934
S        7.45320207       7.44803883       2.51666077        2       0.00000000      -0.00506662      -0.00315963      -0.00477428
S        9.80434827       4.90184615       7.47148688        2       0.00000000      -0.00271406       0.01167949      -0.00899578
S        4.84746090       2.38260224       4.86673193        2       0.00000000       0.00477762       0.02106993       0.00575541
S        2.50385546       9.83151135       9.83151135        2       0.00000000       0.01348081      -0.00553687      -0.00553687
S        4.98233639       0.04094560       2.40680137        2       0.00000000       0.00078059       0.00024837       0.01525564
S        2.42858289       2.39715574       7.37091707        2       0.00000000       0.00177997       0.00398855       0.00767397
S        0.06652993       7.36517628       0.05138051        2       0.00000000       0.00603155      -0.00138634      -0.01502244
S        7.46499626       5.00369586       5.00369586        2       0.00000000      -0.01092950       0.00933285       0.00933285
H        3.68379148       5.19570515       5.19570515        0       0.00000000       0.02056137       0.01091613       0.01091613
