56
Lattice="9.876 0.0 0.0 0.0 9.876 0.0 0.0 0.0 9.876" Properties=species:S:1:pos:R:3:spacegroup_kinds:I:1:initial_magmoms:R:1:forces:R:3 meta_mineral=greigite meta_method=PBE_U0_ONCV meta_U_eV=0.0 meta_nspin=2 meta_spacegroup="F d -3 m" meta_unit_cell=conventional meta_image_index=0 meta_rc=0.0 meta_reaction=V_Fe_16d_SH_hop_channel_edge meta_barrier_meV=235.9654 meta_source_file=results/dft_datasets/2026-09-21_greigite_two_stream/greig_channel/final_00.xyz meta_note="V_Fe(16d) + S-H hop along the octahedron edge that faces the EMPTY 16c site. Replaces the retracted trans-axis band." energy=-88090.59643953403 pbc="T T T"
Fe       1.22320505       1.22320505       1.22269100        0       5.00000000       0.00469921       0.00469921       0.00424309
Fe       6.16305049       1.23091844       6.16816458        0       5.00000000      -0.00332341      -0.00529236       0.00459868
Fe       1.23091844       6.16305049       6.16816458        0       5.00000000      -0.00529236      -0.00332341       0.00459868
Fe       6.20863295       6.20863295       1.18120745        0       5.00000000       0.00681625       0.00681625      -0.04484595
Fe       8.61655727       3.70083879       3.72983040        0       5.00000000       0.01212866      -0.02091387      -0.01554618
Fe       8.66010253       8.66010253       8.67212932        0       5.00000000      -0.00192087      -0.00192087       0.00153083
Fe       3.71682713       3.71682713       8.65343683        0       5.00000000      -0.01411973      -0.01411973       0.01964323
Fe       3.70083879       8.61655727       3.72983040        0       5.00000000      -0.02091387       0.01212866      -0.01554618
Fe       2.48428502       7.40070007      -0.00715881        1      -4.00000000      -0.01437324      -0.00439402       0.00663396
Fe       7.43073304      -0.04151845       2.50647858        1      -4.00000000       0.01250713       0.00899603       0.02536933
Fe      -0.00373818       2.48456064       7.40420807        1      -4.00000000      -0.01153345       0.00787426      -0.00321131
Fe       4.93065927       0.00711741      -0.01108964        1      -4.00000000      -0.00466784       0.02158750       0.00091788
Fe       2.51893140       2.51893140       4.88040574        1      -4.00000000      -0.01167204      -0.01167204      -0.00429708
Fe       7.32906465       4.99499384       7.34844641        1      -4.00000000       0.00232505       0.01282081      -0.01971470
Fe      -0.04151845       7.43073304       2.50647858        1      -4.00000000       0.00899603       0.01250713       0.02536933
Fe       0.00711741       4.93065927      -0.01108964        1      -4.00000000       0.02158750      -0.00466784       0.00091788
Fe       7.34561195       7.34561195       5.00004346        1      -4.00000000      -0.00281356      -0.00281356       0.02371303
Fe       2.48456064      -0.00373818       7.40420807        1      -4.00000000       0.00787426      -0.01153345      -0.00321131
Fe       4.95531983       2.34443138       2.53248257        1      -4.00000000       0.00028694       0.00166787      -0.01367621
Fe      -0.00096054      -0.00096054       4.94283043        1      -4.00000000       0.00489101       0.00489101       0.00990749
Fe       7.40070007       2.48428502      -0.00715881        1      -4.00000000      -0.00439402      -0.01437324       0.00663396
Fe       2.34443138       4.95531983       2.53248257        1      -4.00000000       0.00166787       0.00028694      -0.01367621
Fe       4.99499384       7.32906465       7.34844641        1      -4.00000000       0.01282081       0.00232505      -0.01971470
S        2.49553391       2.49553391       2.47653512        2       0.00000000       0.00601175       0.00601175       0.01790362
S        4.90052858       9.82405246       7.46691617        2       0.00000000      -0.00363245       0.00376281      -0.01129897
S        9.81858792       7.46660378       4.91004871        2       0.00000000      -0.00790820      -0.01002653      -0.00071425
S        7.47148672       4.90184201       9.80434632        2       0.00000000      -0.00906057       0.01176280      -0.00264104
S       -0.02299307       4.97855746       2.41126863        2       0.00000000      -0.00180594       0.00015864       0.01547907
S        7.39604408       7.39604408       7.40796789        2       0.00000000      -0.02147154      -0.02147154      -0.02460854
S        4.98566127       2.41486990       0.06132654        2       0.00000000       0.00227414       0.00735156      -0.00936679
S        2.40679877       0.04094860       4.98234237        2       0.00000000       0.01531503       0.00017921       0.00068751
S        2.51666568       7.44804255       7.45320735        2       0.00000000      -0.00486761      -0.00325425      -0.00519029
S        4.83968436       4.83968436       2.41554290        2       0.00000000      -0.02133913      -0.02133913      -0.01187824
S        9.82343556       2.50592747       9.83174992        2       0.00000000       0.00299765       0.00336712       0.00434234
S        7.46660378       9.81858792       4.91004871        2       0.00000000      -0.01002653      -0.00790820      -0.00071425
S        0.05244465       0.05244465       7.38034475        2       0.00000000      -0.00373427      -0.00373427       0.00250297
S        7.37091537       2.39715041       2.42857917        2       0.00000000       0.00776267       0.00409114       0.00187228
S        5.01270409       7.45779946       5.02548130        2       0.00000000       0.00567905      -0.00807429       0.00174475
S        2.41486990       4.98566127       0.06132654        2       0.00000000       0.00735156       0.00227414      -0.00936679
S        7.44804255       2.51666568       7.45320735        2       0.00000000      -0.00325425      -0.00486761      -0.00519029
S        9.83150848       9.83150848       2.50386355        2       0.00000000      -0.00544045      -0.00544045       0.01334865
S        4.90184201       7.47148672       9.80434632        2       0.00000000       0.01176280      -0.00906057      -0.00264104
S        2.38260278       4.86673231       4.84746055        2       0.00000000       0.02105451       0.00577701       0.00482056
S        5.00369697       5.00369697       7.46499232        2       0.00000000       0.00928914       0.00928914      -0.01088939
S        2.39715041       7.37091537       2.42857917        2       0.00000000       0.00409114       0.00776267       0.00187228
S        0.04094860       2.40679877       4.98234237        2       0.00000000       0.00017921       0.01531503       0.00068751
S        7.36517024       0.05138665       0.06653411        2       0.00000000      -0.00126473      -0.01515151       0.00592511
S        7.43099570       7.43099570       2.52811652        2       0.00000000      -0.00417007      -0.00417007       0.00708313
S        9.82405246       4.90052858       7.46691617        2       0.00000000       0.00376281      -0.00363245      -0.01129897
S        4.86673231       2.38260278       4.84746055        2       0.00000000       0.00577701       0.02105451       0.00482056
S        2.50592747       9.82343556       9.83174992        2       0.00000000       0.00336712       0.00299765       0.00434234
S        4.97855746      -0.02299307       2.41126863        2       0.00000000       0.00015864      -0.00180594       0.01547907
S        2.42542517       2.42542517       7.36463319        2       0.00000000       0.00185017       0.00185017      -0.00602487
S        0.05138665       7.36517024       0.06653411        2       0.00000000      -0.01515151      -0.00126473       0.00592511
S        7.45779946       5.01270409       5.02548130        2       0.00000000      -0.00807429       0.00567905       0.00174475
H        5.19569736       5.19569736       3.68379924        0       0.00000000       0.01094107       0.01094107       0.02060431
56
Lattice="9.876 0.0 0.0 0.0 9.876 0.0 0.0 0.0 9.876" Properties=species:S:1:pos:R:3:spacegroup_kinds:I:1:initial_magmoms:R:1:forces:R:3 meta_mineral=greigite meta_method=PBE_U0_ONCV meta_U_eV=0.0 meta_nspin=2 meta_spacegroup="F d -3 m" meta_unit_cell=conventional meta_image_index=1 meta_rc=0.125 meta_reaction=V_Fe_16d_SH_hop_channel_edge meta_barrier_meV=235.9654 meta_source_file=results/dft_datasets/2026-09-21_greigite_two_stream/greig_channel/final_01.xyz meta_note="V_Fe(16d) + S-H hop along the octahedron edge that faces the EMPTY 16c site. Replaces the retracted trans-axis band." energy=-88090.58558518512 pbc="T T T"
Fe       1.22787308       1.22277457       1.22870057        0       5.00000000       0.00097213       0.00292360       0.00624264
Fe       6.16846461       1.22928892       6.17946247        0       5.00000000      -0.00024605       0.00468738       0.00141025
Fe       1.23236367       6.16450579       6.17578042        0       5.00000000       0.00089809      -0.00053993      -0.00390011
Fe       6.21182256       6.22124477       1.17923343        0       5.00000000       0.00232916       0.00448503      -0.01178337
Fe       8.62762683       3.69966058       3.72990659        0       5.00000000      -0.00361214       0.00112434       0.00225280
Fe       8.65443449       8.65765405       8.67439900        0       5.00000000      -0.00045611      -0.00114183       0.00333266
Fe       3.71844482       3.71637491       8.66284461        0       5.00000000      -0.00025891       0.00269015      -0.00223995
Fe       3.70878449       8.62752107       3.73156298        0       5.00000000      -0.00480179       0.00259424       0.00102510
Fe       2.46792593       7.38945232       0.01287710        1      -4.00000000       0.00149972       0.00585414      -0.00289686
Fe       7.43782687      -0.03268063       2.51962847        1      -4.00000000       0.00724640      -0.00838822       0.01118276
Fe       0.00350609       2.48252344       7.40362664        1      -4.00000000      -0.00072299      -0.00013601       0.00148815
Fe       4.93454284       0.02242003      -0.00437097        1      -4.00000000       0.00189439       0.00390551       0.00135034
Fe       2.52432477       2.52668434       4.88044674        1      -4.00000000       0.00145807       0.00456448       0.00228931
Fe       7.33199511       4.99856643       7.34315125        1      -4.00000000      -0.00173267       0.00173575      -0.00191933
Fe      -0.02244897       7.42370017       2.50892869        1      -4.00000000      -0.00967763       0.00881683       0.01098272
Fe       0.00313780       4.92098045      -0.01324349        1      -4.00000000      -0.00265029      -0.00352370      -0.00314497
Fe       7.35758040       7.34191043       4.99584617        1      -4.00000000      -0.00523374       0.00379418       0.00666404
Fe       2.48264390      -0.00147964       7.40494031        1      -4.00000000       0.00369236      -0.00419913       0.00691190
Fe       4.93734077       2.38220853       2.57908352        1      -4.00000000       0.00471129      -0.00965758      -0.00684016
Fe       0.00675985       0.00505733       4.95642602        1      -4.00000000       0.00132335       0.00463236       0.00862271
Fe       7.39964160       2.48288562       0.00530011        1      -4.00000000      -0.00185891      -0.00351444       0.00334449
Fe       2.35446177       4.95480429       2.53333796        1      -4.00000000      -0.01487280       0.01450925      -0.01116527
Fe       4.98711581       7.32641176       7.35288140        1      -4.00000000       0.00530316       0.00422664      -0.00439813
S        2.49683272       2.49922684       2.48489945        2       0.00000000      -0.00024914       0.00526948       0.00210599
S        4.89894630       9.82620248       7.47069497        2       0.00000000       0.00243843       0.00351907       0.00230525
S        9.82551728       7.46731793       4.91363006        2       0.00000000      -0.00626141      -0.00050882       0.00342317
S        7.46800962       4.90623912       9.80926965        2       0.00000000      -0.00019643      -0.00224406      -0.00545357
S       -0.01248483       4.97820125       2.41427087        2       0.00000000      -0.00691678       0.00430274       0.00200032
S        7.39156372       7.39444722       7.40431344        2       0.00000000       0.00073739      -0.00042577       0.00251120
S        4.98689038       2.43036784       0.08521758        2       0.00000000      -0.00000951       0.00125881      -0.00444338
S        2.41795197       0.04781747       4.98631799        2       0.00000000       0.00002803       0.00279016       0.00544740
S        2.51471240       7.44846949       7.46179275        2       0.00000000      -0.00039235       0.00072145      -0.00228802
S        4.83580996       4.88552828       2.44399657        2       0.00000000      -0.00128709      -0.00426495       0.00174526
S        9.82478008       2.50322225       9.83824813        2       0.00000000       0.00151412      -0.00038824       0.00205714
S        7.46891996       9.81849511       4.91848690        2       0.00000000      -0.00022189       0.00123696       0.00702425
S        0.05152185       0.04847127       7.38597230        2       0.00000000       0.00067311       0.00014887       0.00547568
S        7.36800257       2.40464611       2.43785091        2       0.00000000       0.00152184      -0.00292823       0.00189722
S        5.01667183       7.44432786       5.02194402        2       0.00000000      -0.00170541       0.01235646       0.00220832
S        2.41276935       4.98344810       0.06439716        2       0.00000000      -0.00190005       0.00296834      -0.00405386
S        7.45276054       2.51835076       7.46153658        2       0.00000000       0.00238187      -0.00075179       0.00283670
S        9.83669907       9.83036057       2.51262950        2       0.00000000       0.00170490       0.00308661       0.00727417
S        4.89646154       7.47957777       9.80911606        2       0.00000000      -0.00119839       0.00256879      -0.00764132
S        2.38510087       4.87081136       4.85618817        2       0.00000000       0.00834014       0.00481285      -0.00656840
S        5.00555865       5.00004900       7.46699219        2       0.00000000      -0.00075745       0.00496171      -0.00000771
S        2.40667883       7.37632057       2.43972183        2       0.00000000      -0.00375073       0.00549136      -0.00125341
S        0.04833830       2.41021291       4.98470890        2       0.00000000      -0.00125316       0.00458993       0.00371113
S        7.36581171       0.04941358       0.07357379        2       0.00000000       0.00141668      -0.00108629       0.00641593
S        7.43857155       7.43649654       2.53117559        2       0.00000000      -0.00746494      -0.00275879       0.00352807
S        9.82495398       4.90014255       7.46840054        2       0.00000000       0.00069317      -0.00019797      -0.00232839
S        4.87594272       2.40748261       4.88117090        2       0.00000000       0.00372527       0.00333266      -0.00575233
S        2.50754009       9.82022461       9.83760335        2       0.00000000       0.00052039       0.00484807       0.00331878
S        4.98422758       0.00147676       2.42593418        2       0.00000000       0.00220189      -0.00378878       0.00108938
S        2.42762904       2.42754384       7.37155458        2       0.00000000       0.00001491       0.00073688      -0.00087186
S        0.04426739       7.36355896       0.06980964        2       0.00000000      -0.00146039      -0.00155269       0.00588397
S        7.47476740       5.01078718       5.02549210        2       0.00000000      -0.01156739       0.00134623      -0.00148507
H        5.07269941       5.39832098       3.69532235        0       0.00000000       0.03347653      -0.08889383      -0.04892372
56
Lattice="9.876 0.0 0.0 0.0 9.876 0.0 0.0 0.0 9.876" Properties=species:S:1:pos:R:3:spacegroup_kinds:I:1:initial_magmoms:R:1:forces:R:3 meta_mineral=greigite meta_method=PBE_U0_ONCV meta_U_eV=0.0 meta_nspin=2 meta_spacegroup="F d -3 m" meta_unit_cell=conventional meta_image_index=2 meta_rc=0.25 meta_reaction=V_Fe_16d_SH_hop_channel_edge meta_barrier_meV=235.9654 meta_source_file=results/dft_datasets/2026-09-21_greigite_two_stream/greig_channel/final_02.xyz meta_note="V_Fe(16d) + S-H hop along the octahedron edge that faces the EMPTY 16c site. Replaces the retracted trans-axis band." energy=-88090.54680841889 pbc="T T T"
Fe       1.22964032       1.22059181       1.22881437        0       5.00000000       0.00184168       0.00426443       0.00821236
Fe       6.17079303       1.21913791       6.18352435        0       5.00000000       0.00230679       0.01003013       0.00431148
Fe       1.22940927       6.16541804       6.18127442        0       5.00000000       0.00332624      -0.00074742      -0.00504270
Fe       6.21017561       6.22222051       1.18569640        0       5.00000000       0.01162087       0.01772493      -0.02174948
Fe       8.63670723       3.69692765       3.72711135        0       5.00000000      -0.00775908       0.00192267       0.00604184
Fe       8.65093373       8.65641820       8.67069140        0       5.00000000       0.00028411      -0.00304316       0.00399961
Fe       3.71716902       3.71191947       8.67214867        0       5.00000000       0.00410708       0.00590377      -0.00359003
Fe       3.71217685       8.63215584       3.72893515        0       5.00000000      -0.00183525      -0.00122822       0.00941332
Fe       2.46221483       7.38347886       0.01938245        1      -4.00000000       0.00251351       0.00685250      -0.00164833
Fe       7.43100260      -0.02150689       2.51318686        1      -4.00000000       0.00967789      -0.00486787       0.01195717
Fe       0.00672929       2.48002386       7.40206108        1      -4.00000000       0.00018461      -0.00128967       0.00314317
Fe       4.93608071       0.02127383      -0.00450688        1      -4.00000000       0.00046871       0.00684145       0.00376898
Fe       2.52927713       2.52691345       4.88034633        1      -4.00000000      -0.00005399       0.00547414       0.00473134
Fe       7.33541080       4.99550220       7.34521544        1      -4.00000000      -0.00433308      -0.00415825      -0.00485373
Fe      -0.00792333       7.41098355       2.49790690        1      -4.00000000      -0.00653317       0.01114625       0.01495148
Fe      -0.00031254       4.91961456      -0.00987907        1      -4.00000000       0.00152878      -0.00364300      -0.00479665
Fe       7.36847597       7.33248295       4.98576061        1      -4.00000000      -0.01431102       0.01183607       0.01327821
Fe       2.47922396       0.00228589       7.40095311        1      -4.00000000       0.00327764      -0.00466707       0.01048496
Fe       4.92138566       2.41156575       2.60535650        1      -4.00000000       0.00901146      -0.02165949       0.00008022
Fe       0.00590996       0.00286442       4.95480475        1      -4.00000000       0.00048800       0.00224174       0.00616319
Fe       7.40202866       2.48538308       0.00559958        1      -4.00000000      -0.00141565      -0.00494912       0.00551424
Fe       2.38100425       4.94333542       2.54549276        1      -4.00000000      -0.04460144       0.01907913      -0.01725236
Fe       4.98157160       7.31144470       7.35822034        1      -4.00000000       0.00838334       0.01745136      -0.01513120
S        2.49906167       2.49997212       2.48575285        2       0.00000000      -0.00127964       0.00459816       0.00387105
S        4.89619191       9.81557204       7.46917932        2       0.00000000       0.00329538       0.01638615       0.00886979
S        9.83057080       7.46678361       4.91035538        2       0.00000000      -0.00828615      -0.00232531       0.00213633
S        7.46510881       4.90810214       9.81596510        2       0.00000000       0.00280533      -0.00275905      -0.00738884
S        0.00173160       4.97407154       2.41340308        2       0.00000000      -0.01532120       0.00496891       0.00394819
S        7.38827654       7.39215323       7.39940390        2       0.00000000       0.00445572      -0.00390448       0.00518489
S        4.98852912       2.43481838       0.10114071        2       0.00000000       0.00204274       0.00738035       0.00251197
S        2.41954890       0.04867135       4.98364365        2       0.00000000       0.00008408       0.00409911       0.00871578
S        2.51518728       7.44658312       7.46457123        2       0.00000000      -0.00079627       0.00299431      -0.00259553
S        4.84401972       4.93528330       2.49437181        2       0.00000000      -0.01115525      -0.02185001      -0.03156569
S        9.82488766       2.50141009       9.83966782        2       0.00000000       0.00189516       0.00004165       0.00296602
S        7.46812543       9.81244559       4.91468305        2       0.00000000       0.00295600       0.00797608       0.00981647
S        0.05138310       0.04493843       7.38366653        2       0.00000000      -0.00017458       0.00069188       0.00627889
S        7.36220528       2.41053169       2.44068847        2       0.00000000       0.00283618      -0.00275031       0.00280122
S        5.01757433       7.41630856       5.00890934        2       0.00000000       0.00001080       0.05225973       0.03251648
S        2.41256412       4.98126464       0.07176060        2       0.00000000       0.00075616       0.00493575      -0.00470795
S        7.45430492       2.51421809       7.46249113        2       0.00000000       0.00424001       0.00066797       0.00538518
S        9.83596661       9.82717190       2.51109567        2       0.00000000       0.00181931       0.00331724       0.00611228
S        4.89457853       7.47799749       9.81555495        2       0.00000000      -0.00157969       0.00927577      -0.01611465
S        2.37746622       4.86799592       4.86633707        2       0.00000000       0.01743439       0.00711039      -0.00931768
S        5.00674110       4.98877686       7.47219524        2       0.00000000      -0.00044532       0.01265806      -0.00368259
S        2.41183178       7.37557371       2.44295015        2       0.00000000      -0.00486607       0.00970977       0.00051782
S        0.05276844       2.40610502       4.98370938        2       0.00000000      -0.00107524       0.00626964       0.00618736
S        7.36548354       0.04946926       0.07074976        2       0.00000000       0.00156066      -0.00062324       0.00627118
S        7.44763688       7.44120867       2.52592940        2       0.00000000      -0.00803933       0.00183680       0.01007718
S        9.82343411       4.89908237       7.47242141        2       0.00000000       0.00338974      -0.00383120      -0.00322159
S        4.87769378       2.41149465       4.90155444        2       0.00000000       0.00727854       0.00577573      -0.00610920
S        2.50818750       9.81677570       9.83735849        2       0.00000000      -0.00128221       0.00449712       0.00428629
S        4.98336859       0.01535232       2.42903307        2       0.00000000       0.00281124      -0.00780201       0.00385974
S        2.42855212       2.42634361       7.37547562        2       0.00000000       0.00006479       0.00201420       0.00254102
S        0.04280594       7.36466237       0.06448565        2       0.00000000      -0.00146501      -0.00559189       0.00738781
S        7.48959787       5.00482830       5.02578213        2       0.00000000      -0.02005718       0.00535689      -0.00139971
H        5.00132983       5.59237652       3.70934850        0       0.00000000       0.03790912      -0.19389872      -0.08812687
56
Lattice="9.876 0.0 0.0 0.0 9.876 0.0 0.0 0.0 9.876" Properties=species:S:1:pos:R:3:spacegroup_kinds:I:1:initial_magmoms:R:1:forces:R:3 meta_mineral=greigite meta_method=PBE_U0_ONCV meta_U_eV=0.0 meta_nspin=2 meta_spacegroup="F d -3 m" meta_unit_cell=conventional meta_image_index=3 meta_rc=0.375 meta_reaction=V_Fe_16d_SH_hop_channel_edge meta_barrier_meV=235.9654 meta_source_file=results/dft_datasets/2026-09-21_greigite_two_stream/greig_channel/final_03.xyz meta_note="V_Fe(16d) + S-H hop along the octahedron edge that faces the EMPTY 16c site. Replaces the retracted trans-axis band." energy=-88090.46176808231 pbc="T T T"
Fe       1.23062124       1.21730944       1.22720507        0       5.00000000       0.00327379       0.00639793       0.00875409
Fe       6.16843050       1.20651955       6.18088838        0       5.00000000       0.00453980       0.01089968       0.00665787
Fe       1.22697549       6.16212572       6.18373829        0       5.00000000       0.00072479       0.00161182      -0.00155012
Fe       6.19887170       6.20702192       1.20113267        0       5.00000000       0.02857447       0.03895684      -0.03477134
Fe       8.64608234       3.69327869       3.72019643        0       5.00000000      -0.00793880       0.00247829       0.00874664
Fe       8.64679722       8.65241309       8.66410961        0       5.00000000      -0.00084178      -0.00590840       0.00117191
Fe       3.71344567       3.70426263       8.67481561        0       5.00000000       0.00789432       0.00978125      -0.00180749
Fe       3.70853737       8.64191951       3.71422131        0       5.00000000       0.01689343      -0.01612750       0.03276922
Fe       2.45899749       7.37889501       0.01882014        1      -4.00000000       0.00449840       0.00418396       0.00212707
Fe       7.42311341      -0.01651305       2.50490301        1      -4.00000000       0.00740889       0.00603978       0.00755262
Fe       0.00232827       2.47801385       7.40086682        1      -4.00000000       0.00162725      -0.00095928       0.00431945
Fe       4.93650041       0.01402792      -0.00960206        1      -4.00000000      -0.00346713       0.00373170       0.00254951
Fe       2.53386910       2.52706675       4.88176687        1      -4.00000000      -0.00099245      -0.00067877       0.00353681
Fe       7.33797851       4.99259022       7.34492048        1      -4.00000000      -0.00871347      -0.00925854      -0.00686742
Fe      -0.00068155       7.39994380       2.48748029        1      -4.00000000       0.00291692       0.00628789       0.01361193
Fe      -0.00005248       4.92201798      -0.00357229        1      -4.00000000       0.00556644      -0.00322982      -0.00386077
Fe       7.38651398       7.32232676       4.96941639        1      -4.00000000      -0.03969886       0.01640312       0.01432824
Fe       2.47531875       0.00185260       7.39535987        1      -4.00000000       0.00218595      -0.00420041       0.00787580
Fe       4.91070338       2.44787877       2.61063355        1      -4.00000000       0.01026153      -0.04973593       0.01825175
Fe       0.00329603       0.00052208       4.95266516        1      -4.00000000       0.00245515      -0.00188590       0.00164473
Fe       7.40377684       2.48353565       0.00109664        1      -4.00000000       0.00024734      -0.00414462       0.00686690
Fe       2.42358358       4.92658763       2.55698126        1      -4.00000000      -0.07252439       0.02173302      -0.00943261
Fe       4.97699544       7.28961195       7.36475362        1      -4.00000000       0.01257218       0.02702255      -0.05183575
S        2.50130157       2.49838605       2.48498143        2       0.00000000       0.00241889       0.00813960       0.00158688
S        4.89188757       9.79646372       7.46115957        2       0.00000000       0.00466450       0.02719096       0.01344070
S        9.83698843       7.46500964       4.90722316        2       0.00000000      -0.00982984      -0.00281896      -0.00227003
S        7.46165205       4.90563860       9.82155282        2       0.00000000       0.00167559       0.00115828      -0.00615059
S        0.02080163       4.97047616       2.41248712        2       0.00000000      -0.02093598       0.00366845       0.00524248
S        7.38274195       7.38893161       7.38944471        2       0.00000000       0.00908319      -0.00632903       0.00664939
S        4.98864700       2.43268919       0.10420129        2       0.00000000       0.00472852       0.01788742       0.01777044
S        2.41729742       0.04943962       4.97713549        2       0.00000000       0.00475551       0.00040829       0.00815117
S        2.51711817       7.44196616       7.46219331        2       0.00000000      -0.00179077       0.00372759      -0.00044557
S        4.85707640       4.98370206       2.57065213        2       0.00000000      -0.00821725       0.01770513      -0.00064997
S        9.82513292       2.49954831       9.83886700        2       0.00000000       0.00127141       0.00011467       0.00493420
S        7.46594222       9.80399724       4.90706475        2       0.00000000       0.00316143       0.01094647       0.00897444
S        0.05049373       0.04034585       7.37981832        2       0.00000000      -0.00290792       0.00035841       0.00509850
S        7.35773991       2.41448650       2.43881874        2       0.00000000       0.00109940       0.00055510       0.00337714
S        5.01633703       7.36879692       4.97048182        2       0.00000000       0.00022831       0.12805405       0.11508181
S        2.41538041       4.97733067       0.07711554        2       0.00000000       0.00872221       0.00652289       0.00226514
S        7.45221860       2.50640877       7.45851856        2       0.00000000       0.00374893       0.00237287       0.00597370
S        9.83409260       9.82331435       2.50893858        2       0.00000000       0.00081633       0.00464521       0.00123207
S        4.89380106       7.46842644       9.82453262        2       0.00000000      -0.00122050       0.01130977      -0.02457023
S        2.37240649       4.86231393       4.87581198        2       0.00000000       0.01600280       0.00908242      -0.00745260
S        5.00498045       4.97429521       7.47126577        2       0.00000000       0.00256365       0.01422283      -0.00451974
S        2.41299213       7.37313260       2.43957603        2       0.00000000      -0.00306835       0.01470980       0.00594516
S        0.05573394       2.40196031       4.98180289        2       0.00000000      -0.00089217       0.00483573       0.00722917
S        7.36521413       0.04604472       0.06607166        2       0.00000000       0.00043066       0.00026842       0.00107112
S        7.45544840       7.44094939       2.51567473        2       0.00000000      -0.00855072       0.00519697       0.01250250
S        9.82105632       4.89654864       7.47501567        2       0.00000000       0.00368773      -0.00630923      -0.00162057
S        4.87626381       2.40866047       4.90955188        2       0.00000000       0.00714227       0.00511264      -0.00047077
S        2.50860389       9.81316824       9.83417329        2       0.00000000      -0.00496609       0.00236619       0.00444929
S        4.98253852       0.02959666       2.42271037        2       0.00000000       0.00143673      -0.01481341       0.01354097
S        2.42653382       2.42164264       7.37459150        2       0.00000000      -0.00010182       0.00127912       0.00656685
S        0.04164653       7.36570699       0.05757972        2       0.00000000      -0.00255645      -0.00893587       0.00337097
S        7.50127516       4.99773288       5.02079240        2       0.00000000      -0.01765962       0.00657431       0.00045226
H        4.95276930       5.78752606       3.76819758        0       0.00000000       0.02759488      -0.32860524      -0.23739535
56
Lattice="9.876 0.0 0.0 0.0 9.876 0.0 0.0 0.0 9.876" Properties=species:S:1:pos:R:3:spacegroup_kinds:I:1:initial_magmoms:R:1:forces:R:3 meta_mineral=greigite meta_method=PBE_U0_ONCV meta_U_eV=0.0 meta_nspin=2 meta_spacegroup="F d -3 m" meta_unit_cell=conventional meta_image_index=4 meta_rc=0.5 meta_reaction=V_Fe_16d_SH_hop_channel_edge meta_barrier_meV=235.9654 meta_source_file=results/dft_datasets/2026-09-21_greigite_two_stream/greig_channel/final_04.xyz meta_note="V_Fe(16d) + S-H hop along the octahedron edge that faces the EMPTY 16c site. Replaces the retracted trans-axis band." energy=-88090.36047411404 pbc="T T T"
Fe       1.23073331       1.21514620       1.22570825        0       5.00000000       0.00465858       0.00580812       0.00853632
Fe       6.16541740       1.20176799       6.17663651        0       5.00000000      -0.00101944       0.00383429      -0.00201343
Fe       1.22650527       6.15940834       6.18421031        0       5.00000000       0.00138531      -0.00075513       0.00020157
Fe       6.17989868       6.18325165       1.22043988        0       5.00000000      -0.00064355      -0.00134674      -0.00277396
Fe       8.64949728       3.69179014       3.71658962        0       5.00000000      -0.00138531      -0.00020157       0.00075513
Fe       8.64526597       8.65029153       8.66085517        0       5.00000000      -0.00465858      -0.00853632      -0.00580812
Fe       3.71058143       3.69936333       8.67423128        0       5.00000000       0.00101944       0.00201343      -0.00383429
Fe       3.69610464       8.65555671       3.69275024        0       5.00000000       0.00064355       0.00277396       0.00134674
Fe       2.45723259       7.37580061       0.01668698        1      -4.00000000       0.00259939      -0.00049391      -0.00378441
Fe       7.41876786      -0.01669262       2.50020118        1      -4.00000000      -0.00259939       0.00378441       0.00049391
Fe      -0.00000153       2.47659620       7.39940667        1      -4.00000000       0.00000000      -0.00207822       0.00207822
Fe       4.93799994       0.01154297      -0.01154288        1      -4.00000000       0.00000000      -0.00063172       0.00063172
Fe       2.53616392       2.52961146       4.88277556        1      -4.00000000       0.00508256       0.00145756       0.00556772
Fe       7.33983226       4.99322914       7.34638691        1      -4.00000000      -0.00508256      -0.00556772      -0.00145756
Fe      -0.00000178       7.39409744       2.48190301        1      -4.00000000       0.00000000      -0.00623184       0.00623184
Fe      -0.00097218       4.92368788      -0.00043642        1      -4.00000000       0.00066180      -0.00120482       0.00211139
Fe       7.41320834       7.31674801       4.95863398        1      -4.00000000       0.00160591       0.00472517      -0.00616602
Fe       2.47282806       0.00100967       7.39356957        1      -4.00000000      -0.00052656      -0.00513269       0.00391065
Fe       4.90355800       2.48831266       2.60235446        1      -4.00000000      -0.00377901       0.01794810       0.00290715
Fe       0.00097168       0.00043567       4.95231014        1      -4.00000000      -0.00066180      -0.00211139       0.00120482
Fe       7.40317387       2.48243315      -0.00101507        1      -4.00000000       0.00052656      -0.00391065       0.00513269
Fe       2.46279351       4.91736995       2.55925478        1      -4.00000000      -0.00160591       0.00616602      -0.00472517
Fe       4.97244728       7.27364822       7.38769121        1      -4.00000000       0.00377901      -0.00290715      -0.01794810
S        2.49880737       2.49465154       2.48610199        2       0.00000000       0.00049699       0.00672549       0.00191779
S        4.88892939       9.78038296       7.45058722        2       0.00000000      -0.00157969      -0.00308918      -0.00631283
S        9.84417436       7.46416812       4.90650308        2       0.00000000       0.00139637      -0.00183294      -0.00480771
S        7.45965959       4.90345223       9.82493857        2       0.00000000      -0.00410554      -0.00064303       0.00001234
S        0.03182588       4.96949616       2.41183161        2       0.00000000      -0.00139637       0.00480771       0.00183294
S        7.37719294       7.38989996       7.38135105        2       0.00000000      -0.00049699      -0.00191779      -0.00672549
S        4.98707103       2.42541123       0.09561467        2       0.00000000       0.00157969       0.00631283       0.00308918
S        2.41633950       0.05105946       4.97254931        2       0.00000000       0.00410554      -0.00001234       0.00064303
S        2.51923887       7.43932366       7.45982084        2       0.00000000       0.00243998       0.00017921      -0.00263769
S        4.86372981       4.97504977       2.58752607        2       0.00000000       0.00446678      -0.02516313      -0.01531812
S        9.82550298       2.49825831       9.83785689        2       0.00000000       0.00179437      -0.00053248       0.00242506
S        7.46200698       9.79897332       4.90207682        2       0.00000000      -0.00599607      -0.00267780      -0.00141179
S        0.05049818       0.03814368       7.37774410        2       0.00000000      -0.00179437      -0.00242506       0.00053248
S        7.35676233       2.41617744       2.43667458        2       0.00000000      -0.00243998       0.00263769      -0.00017921
S        5.01226982       7.28847117       4.90095134        2       0.00000000      -0.00446678       0.01531812       0.02516313
S        2.41399204       4.97392438       0.07702387        2       0.00000000       0.00599607       0.00141179       0.00267780
S        7.45074445       2.50300395       7.45640577        2       0.00000000       0.00220138      -0.00197564       0.00314369
S        9.83399150       9.82158795       2.50895020        2       0.00000000       0.00121279       0.00263307       0.00512575
S        4.89357582       7.46047689       9.83445815        2       0.00000000      -0.00155192      -0.00473057      -0.00391862
S        2.36983570       4.85894075       4.88011404        2       0.00000000       0.00862682       0.00353861      -0.00200572
S        5.00211412       4.96705760       7.46945990        2       0.00000000       0.00016686       0.00077904      -0.00346096
S        2.41498653       7.36902270       2.43634423        2       0.00000000       0.00182600       0.00548982       0.00052142
S        0.05617654       2.40086592       4.98071708        2       0.00000000      -0.00023140      -0.00003625       0.00809203
S        7.36637577       0.04389900       0.06412155        2       0.00000000       0.00202860      -0.00145087      -0.00117834
S        7.46100974       7.43965316       2.50697443        2       0.00000000      -0.00182600      -0.00052142      -0.00548982
S        9.81982277       4.89528411       7.47513255        2       0.00000000       0.00023140      -0.00809203       0.00003625
S        4.87388564       2.40653954       4.90894253        2       0.00000000      -0.00016686       0.00346096      -0.00077904
S        2.50962497       9.81187995       9.83210228        2       0.00000000      -0.00202860       0.00117834       0.00145087
S        4.98242299       0.04154118       2.41552289        2       0.00000000       0.00155192       0.00391862       0.00473057
S        2.42525255       2.41959234       7.37299679        2       0.00000000      -0.00220138      -0.00314369       0.00197564
S        0.04201033       7.36705091       0.05441352        2       0.00000000      -0.00121279      -0.00512575      -0.00263307
S        7.50616440       4.99588600       5.01706010        2       0.00000000      -0.00862682       0.00200572      -0.00353861
H        4.93799926       5.97099104       3.90500750        0       0.00000000       0.00000000      -0.00442795       0.00442795
56
Lattice="9.876 0.0 0.0 0.0 9.876 0.0 0.0 0.0 9.876" Properties=species:S:1:pos:R:3:spacegroup_kinds:I:1:initial_magmoms:R:1:forces:R:3 meta_mineral=greigite meta_method=PBE_U0_ONCV meta_U_eV=0.0 meta_nspin=2 meta_spacegroup="F d -3 m" meta_unit_cell=conventional meta_image_index=5 meta_rc=0.625 meta_reaction=V_Fe_16d_SH_hop_channel_edge meta_barrier_meV=235.9654 meta_source_file=results/dft_datasets/2026-09-21_greigite_two_stream/greig_channel/final_05.xyz meta_note="V_Fe(16d) + S-H hop along the octahedron edge that faces the EMPTY 16c site. Replaces the retracted trans-axis band." energy=-88090.46177134768 pbc="T T T"
Fe       1.22920491       1.21189089       1.22358668        0       5.00000000       0.00084384      -0.00116342       0.00590865
Fe       6.16255295       1.20118242       6.17173696        0       5.00000000      -0.00784598       0.00182780      -0.00974371
Fe       1.22991639       6.15580414       6.18272062        0       5.00000000       0.00797273      -0.00874304      -0.00246517
Fe       6.16746222       6.16177692       1.23407732        0       5.00000000      -0.01686361      -0.03278002       0.01614421
Fe       8.64902632       3.69226122       3.71387314        0       5.00000000      -0.00075205       0.00153161      -0.00159666
Fe       8.64537653       8.64879733       8.65869063        0       5.00000000      -0.00324139      -0.00875718      -0.00638636
Fe       3.70757046       3.69510966       8.66948153        0       5.00000000      -0.00454751      -0.00664836      -0.01093002
Fe       3.67713336       8.67486310       3.66897836        0       5.00000000      -0.02862281       0.03485207      -0.03895221
Fe       2.45288358       7.37109714       0.01651363        1      -4.00000000      -0.00740272      -0.00757678      -0.00603926
Fe       7.41700738      -0.01882618       2.49710611        1      -4.00000000      -0.00450277      -0.00211730      -0.00416622
Fe      -0.00233277       2.47513785       7.39798981        1      -4.00000000      -0.00163445      -0.00430660       0.00096082
Fe       4.93950178       0.00960205      -0.01402630        1      -4.00000000       0.00346919      -0.00255979      -0.00373478
Fe       2.53801897       2.53108065       4.88341109        1      -4.00000000       0.00869367       0.00684865       0.00926780
Fe       7.34212646       4.99424075       7.34892761        1      -4.00000000       0.00100967      -0.00357023       0.00068417
Fe       0.00068222       7.38852126       2.47605581        1      -4.00000000      -0.00293466      -0.01363456      -0.00629355
Fe      -0.00330002       4.92333286      -0.00052458        1      -4.00000000      -0.00245412      -0.00165476       0.00187691
Fe       7.45241377       7.31902013       4.94941745        1      -4.00000000       0.07257967       0.00943955      -0.02174510
Fe       2.47222306      -0.00109888       7.39246373        1      -4.00000000      -0.00025685      -0.00685970       0.00415053
Fe       4.89900613       2.51125273       2.58638772        1      -4.00000000      -0.01255598       0.05180053      -0.02703772
Fe       0.00005820       0.00357490       4.95398366        1      -4.00000000      -0.00558135       0.00385923       0.00324113
Fe       7.40068566       2.48064331      -0.00185724        1      -4.00000000      -0.00221166      -0.00788660       0.00421738
Fe       2.48948603       4.90658579       2.55367189        1      -4.00000000       0.03966569      -0.01433210      -0.01641187
Fe       4.96530314       7.26536367       7.42811638        1      -4.00000000      -0.01029907      -0.01823838       0.04975676
S        2.49326091       2.48656036       2.48707054        2       0.00000000      -0.00912047      -0.00667304       0.00630666
S        4.88735051       9.77179296       7.44331094        2       0.00000000      -0.00468995      -0.01774987      -0.01792599
S        9.85519757       7.46351715       4.90551986        2       0.00000000       0.02093701      -0.00530650      -0.00362783
S        7.45870557       4.89885804       9.82655912        2       0.00000000      -0.00479356      -0.00808869      -0.00039209
S        0.03901274       4.96877866       2.41098456        2       0.00000000       0.00979359       0.00221886       0.00284698
S        7.37469439       7.39102327       7.37761206        2       0.00000000      -0.00234562      -0.00158149      -0.00808483
S        4.98411875       2.41483290       0.07953515        2       0.00000000      -0.00471926      -0.01336434      -0.02719276
S        2.41434614       0.05444386       4.97036271        2       0.00000000      -0.00161517       0.00613748      -0.00120765
S        2.51826583       7.43718083       7.46151769        2       0.00000000      -0.00113026      -0.00340543      -0.00058107
S        4.85965903       4.90551530       2.50719711        2       0.00000000      -0.00018820      -0.11503296      -0.12803734
S        9.82550295       2.49618523       9.83565481        2       0.00000000       0.00295034      -0.00514066      -0.00033167
S        7.46062265       9.79888137       4.89867104        2       0.00000000      -0.00876695      -0.00223995      -0.00653446
S        0.05086769       0.03713403       7.37645057        2       0.00000000      -0.00125470      -0.00497508      -0.00008228
S        7.35888260       2.41380213       2.43402879        2       0.00000000       0.00181314       0.00048851      -0.00370033
S        5.01892643       7.30534971       4.89231058        2       0.00000000       0.00824013       0.00058441      -0.01783343
S        2.41004837       4.96893475       0.07200181        2       0.00000000      -0.00312183      -0.00899578      -0.01098478
S        7.44946742       2.50141354       7.45436030        2       0.00000000       0.00004474      -0.00656531      -0.00134572
S        9.83435826       9.81841687       2.51029843        2       0.00000000       0.00258216      -0.00335143       0.00890013
S        4.89345905       7.45329411       9.84640527        2       0.00000000      -0.00142979      -0.01358622       0.01480698
S        2.37472917       4.85520600       4.87826609        2       0.00000000       0.01759200      -0.00041343      -0.00655169
S        4.99973669       4.96644786       7.46733465        2       0.00000000      -0.00717338       0.00038695      -0.00509541
S        2.42054659       7.36032522       2.43504704        2       0.00000000       0.00858543      -0.01246137      -0.00517075
S        0.05494239       2.40097813       4.97945789        2       0.00000000      -0.00371524       0.00168459       0.00625447
S        7.36739682       0.04183282       0.06283657        2       0.00000000       0.00499000      -0.00449712      -0.00242455
S        7.46301019       7.43642338       2.50286796        2       0.00000000       0.00303622      -0.00598347      -0.01471597
S        9.82026267       4.89420223       7.47404443        2       0.00000000       0.00087289      -0.00719703      -0.00488201
S        4.87101515       2.40473502       4.90170226        2       0.00000000      -0.00256930       0.00450971      -0.01419043
S        2.51079089       9.80992320       9.82995539        2       0.00000000      -0.00049391      -0.00102330      -0.00026482
S        4.98220307       0.05146737       2.40756858        2       0.00000000       0.00121690       0.02455121      -0.01123084
S        2.42377402       2.41747882       7.36958895        2       0.00000000      -0.00369673      -0.00597961      -0.00234022
S        0.04190364       7.36705779       0.05268690        2       0.00000000      -0.00080964      -0.00119171      -0.00465755
S        7.50358935       5.00018855       5.01368411        2       0.00000000      -0.01596038       0.00747368      -0.00907908
H        4.92322936       6.10780466       4.08848015        0       0.00000000      -0.02758845       0.23743701       0.32864432
56
Lattice="9.876 0.0 0.0 0.0 9.876 0.0 0.0 0.0 9.876" Properties=species:S:1:pos:R:3:spacegroup_kinds:I:1:initial_magmoms:R:1:forces:R:3 meta_mineral=greigite meta_method=PBE_U0_ONCV meta_U_eV=0.0 meta_nspin=2 meta_spacegroup="F d -3 m" meta_unit_cell=conventional meta_image_index=6 meta_rc=0.75 meta_reaction=V_Fe_16d_SH_hop_channel_edge meta_barrier_meV=235.9654 meta_source_file=results/dft_datasets/2026-09-21_greigite_two_stream/greig_channel/final_06.xyz meta_note="V_Fe(16d) + S-H hop along the octahedron edge that faces the EMPTY 16c site. Replaces the retracted trans-axis band." energy=-88090.54681141215 pbc="T T T"
Fe       1.22506781       1.20530812       1.21958142        0       5.00000000      -0.00033450      -0.00399678       0.00299713
Fe       6.15882972       1.20385023       6.16407916        0       5.00000000      -0.00410451       0.00353630      -0.00589554
Fe       1.23929594       6.14888935       6.17907032        0       5.00000000       0.00772591      -0.00609789      -0.00190519
Fe       6.16381680       6.14706195       1.24384658        0       5.00000000       0.00189130      -0.00943081       0.00115828
Fe       8.64659441       3.69472503       3.71058007        0       5.00000000      -0.00333986       0.00508641       0.00076747
Fe       8.64635807       8.64718852       8.65540696        0       5.00000000      -0.00178897      -0.00820362      -0.00426855
Fe       3.70520678       3.69247281       8.65686332        0       5.00000000      -0.00229908      -0.00427009      -0.01002910
Fe       3.66583223       8.69029745       3.65377994        0       5.00000000      -0.01165867       0.02180373      -0.01768996
Fe       2.44498712       7.36280520       0.02151038        1      -4.00000000      -0.00964164      -0.01194355       0.00489589
Fe       7.41379031      -0.01938579       2.49253058        1      -4.00000000      -0.00253562       0.00165450      -0.00690084
Fe      -0.00673457       2.47394902       7.39597584        1      -4.00000000      -0.00018615      -0.00315629       0.00128144
Fe       4.93991939       0.00451599      -0.02127713        1      -4.00000000      -0.00046280      -0.00381757      -0.00680545
Fe       2.54059121       2.53078567       4.88049212        1      -4.00000000       0.00432074       0.00487430       0.00416442
Fe       7.34671716       4.99566745       7.34907695        1      -4.00000000       0.00005914      -0.00474549      -0.00545537
Fe       0.00792249       7.37809534       2.46501569        1      -4.00000000       0.00653832      -0.01496819      -0.01111334
Fe      -0.00591084       4.92119094      -0.00286703        1      -4.00000000      -0.00050908      -0.00615831      -0.00224894
Fe       7.49498625       7.33049613       4.93266455        1      -4.00000000       0.04462612       0.01730455      -0.01904313
Fe       2.47397662      -0.00559746       7.39061817        1      -4.00000000       0.00137657      -0.00551347       0.00493086
Fe       4.89442335       2.51778063       2.56456417        1      -4.00000000      -0.00836251       0.01513788      -0.01747887
Fe       0.00031695       0.00988721       4.95638865        1      -4.00000000      -0.00150487       0.00477737       0.00366356
Fe       7.39677885       2.47505823      -0.00229376        1      -4.00000000      -0.00328124      -0.01046722       0.00468224
Fe       2.50752432       4.89023456       2.54351952        1      -4.00000000       0.01430022      -0.01326098      -0.01185767
Fe       4.95461948       7.27062870       7.46442991        1      -4.00000000      -0.00899012      -0.00003188       0.02163892
S        2.48772335       2.47659466       2.48384623        2       0.00000000      -0.00445212      -0.00519234       0.00392865
S        4.88747219       9.77485227       7.44118099        2       0.00000000      -0.00207411      -0.00246055      -0.00735773
S        9.87426589       7.46259992       4.90192720        2       0.00000000       0.01529986      -0.00394716      -0.00497020
S        7.45645209       4.89235727       9.82732602        2       0.00000000      -0.00009307      -0.00869624      -0.00410991
S        0.04543035       4.96564974       2.40921269        2       0.00000000       0.00828821      -0.00215664       0.00233148
S        7.37694048       7.39025068       7.37602290        2       0.00000000       0.00126935      -0.00390525      -0.00455420
S        4.97981153       2.40682283       0.06043236        2       0.00000000      -0.00328381      -0.00887802      -0.01639207
S        2.41088996       0.06004077       4.96789832        2       0.00000000      -0.00275648       0.00735824       0.00273951
S        2.51379614       7.43531215       7.46547164        2       0.00000000      -0.00285984      -0.00281047       0.00273874
S        4.85842095       4.86708282       2.45968740        2       0.00000000      -0.00002982      -0.03250132      -0.05227824
S        9.82461625       2.49233695       9.83105786        2       0.00000000       0.00020877      -0.00633468      -0.00067311
S        7.46344121       9.80423582       4.89473647        2       0.00000000      -0.00073585       0.00472594      -0.00493138
S        0.05111541       0.03633606       7.37458710        2       0.00000000      -0.00191110      -0.00295985      -0.00003445
S        7.36081435       2.41142599       2.42941395        2       0.00000000       0.00078084       0.00261198      -0.00299174
S        5.03198478       7.38162715       4.94072248        2       0.00000000       0.01116373       0.03159449       0.02186903
S        2.40787083       4.96131731       0.06355670        2       0.00000000      -0.00294983      -0.00981827      -0.00800179
S        7.44744858       2.50052504       7.44965473        2       0.00000000      -0.00006813      -0.00254282      -0.00199878
S        9.83319597       9.81151212       2.51134582        2       0.00000000       0.00145576      -0.00738369       0.00555821
S        4.89262707       7.44696580       9.86064528        2       0.00000000      -0.00281639      -0.00386771       0.00778710
S        2.38639945       4.85021328       4.87116812        2       0.00000000       0.01999727       0.00140357      -0.00537900
S        4.99830575       4.97443733       7.46450582        2       0.00000000      -0.00725720       0.00615599      -0.00568702
S        2.42836229       7.35006728       2.43479106        2       0.00000000       0.00802004      -0.01007975      -0.00183885
S        0.05256860       2.40358065       4.97691981        2       0.00000000      -0.00338589       0.00321234       0.00381346
S        7.36780951       0.03864672       0.05923077        2       0.00000000       0.00132180      -0.00427780      -0.00451820
S        7.46416668       7.43304849       2.50042881        2       0.00000000       0.00488047      -0.00055639      -0.00973060
S        9.82322690       4.89229262       7.46989191        2       0.00000000       0.00108886      -0.00616088      -0.00625087
S        4.86925766       2.40381240       4.88722953        2       0.00000000       0.00040701       0.00358797      -0.01271128
S        2.51052146       9.80524483       9.82652916        2       0.00000000      -0.00158251      -0.00624495       0.00064072
S        4.98142819       0.06045213       2.39800262        2       0.00000000       0.00156889       0.01607377      -0.00925289
S        2.42169106       2.41350543       7.36178161        2       0.00000000      -0.00424618      -0.00538363      -0.00066103
S        0.04003154       7.36490393       0.04882987        2       0.00000000      -0.00182728      -0.00609223      -0.00333678
S        7.49853669       5.00966043       5.00800318        2       0.00000000      -0.01734338       0.00934107      -0.00712478
H        4.87466810       6.16665424       4.28362978        0       0.00000000      -0.03791657       0.08807211       0.19388972
56
Lattice="9.876 0.0 0.0 0.0 9.876 0.0 0.0 0.0 9.876" Properties=species:S:1:pos:R:3:spacegroup_kinds:I:1:initial_magmoms:R:1:forces:R:3 meta_mineral=greigite meta_method=PBE_U0_ONCV meta_U_eV=0.0 meta_nspin=2 meta_spacegroup="F d -3 m" meta_unit_cell=conventional meta_image_index=7 meta_rc=0.875 meta_reaction=V_Fe_16d_SH_hop_channel_edge meta_barrier_meV=235.9654 meta_source_file=results/dft_datasets/2026-09-21_greigite_two_stream/greig_channel/final_07.xyz meta_note="V_Fe(16d) + S-H hop along the octahedron edge that faces the EMPTY 16c site. Replaces the retracted trans-axis band." energy=-88090.58558504908 pbc="T T T"
Fe       1.22156419       1.20159910       1.21834472        0       5.00000000       0.00045766      -0.00331467       0.00114748
Fe       6.15755771       1.21315579       6.15962563        0       5.00000000       0.00023834       0.00224432      -0.00269374
Fe       1.24837195       6.14609526       6.17633732        0       5.00000000       0.00362654      -0.00225666      -0.00112949
Fe       6.16721609       6.14444035       1.24847806        0       5.00000000       0.00480513      -0.00103718      -0.00257805
Fe       8.64363446       3.70021877       3.71149426        0       5.00000000      -0.00088703       0.00391528       0.00052836
Fe       8.64812924       8.64730238       8.65322581        0       5.00000000      -0.00097882      -0.00623570      -0.00292463
Fe       3.70753637       3.69653731       8.64670737        0       5.00000000       0.00024940      -0.00141565      -0.00468789
Fe       3.66417953       8.69675905       3.65475592        0       5.00000000      -0.00233225       0.01175688      -0.00451177
Fe       2.43817447       7.35637164       0.03267798        1      -4.00000000      -0.00725822      -0.01119047       0.00839362
Fe       7.40807778      -0.01288158       2.48655118        1      -4.00000000      -0.00151824       0.00291512      -0.00585312
Fe      -0.00350994       2.47237797       7.39347720        1      -4.00000000       0.00072454      -0.00148815       0.00012676
Fe       4.94145780       0.00436944      -0.02242002        1      -4.00000000      -0.00190313      -0.00135523      -0.00389805
Fe       2.54400454       2.53284789       4.87743563        1      -4.00000000       0.00172778       0.00192010      -0.00176275
Fe       7.35167080       4.99555781       7.34931192        1      -4.00000000      -0.00145679      -0.00228340      -0.00456602
Fe       0.02244973       7.36707095       2.45229917        1      -4.00000000       0.00969177      -0.01098632      -0.00881991
Fe      -0.00676018       4.91957671      -0.00505808        1      -4.00000000      -0.00132232      -0.00862168      -0.00463544
Fe       7.52153651       7.34265525       4.92119948        1      -4.00000000       0.01487357       0.01114702      -0.01449254
Fe       2.47636238      -0.00530519       7.39311934        1      -4.00000000       0.00185094      -0.00332572       0.00348410
Fe       4.88888103       2.52311909       2.54958996        1      -4.00000000      -0.00533710       0.00440404      -0.00422047
Fe      -0.00313532       0.01324678       4.95502180        1      -4.00000000       0.00266032       0.00313340       0.00352627
Fe       7.39335597       2.47106017       0.00147736        1      -4.00000000      -0.00369648      -0.00690495       0.00421095
Fe       2.51841895       4.88015208       2.53408834        1      -4.00000000       0.00524711      -0.00669387      -0.00378698
Fe       4.93866415       7.29691592       7.49378995        1      -4.00000000      -0.00469586       0.00685148       0.00968637
S        2.48443413       2.47168442       2.48155524        2       0.00000000      -0.00076079      -0.00248497       0.00040366
S        4.88910988       9.79078310       7.44563332        2       0.00000000       0.00003522       0.00444647      -0.00125830
S        9.88848381       7.46172728       4.89779650        2       0.00000000       0.00692604      -0.00198823      -0.00429837
S        7.45804596       4.88968090       9.82818067        2       0.00000000      -0.00002700      -0.00542374      -0.00277679
S        0.05048402       4.96237111       2.40868159        2       0.00000000       0.00624855      -0.00343962       0.00052810
S        7.37916855       7.39109973       7.37677361        2       0.00000000       0.00026020      -0.00210291      -0.00524839
S        4.97705456       2.40530416       0.04979685        2       0.00000000      -0.00245515      -0.00229857      -0.00352601
S        2.40799184       0.06673044       4.96976243        2       0.00000000       0.00019618       0.00544997       0.00222452
S        2.50799750       7.43814860       7.47135134        2       0.00000000      -0.00152081      -0.00189053       0.00293491
S        4.85933002       4.85405898       2.43167400        2       0.00000000       0.00171210      -0.00220601      -0.01236881
S        9.82447670       2.49002987       9.82752758        2       0.00000000      -0.00064329      -0.00546102      -0.00011673
S        7.46323189       9.81160149       4.89255137        2       0.00000000       0.00193090       0.00406646      -0.00296654
S        0.05122360       0.03775641       7.37277789        2       0.00000000      -0.00153006      -0.00209005       0.00037667
S        7.36128447       2.41420655       2.42753049        2       0.00000000       0.00040598       0.00227260      -0.00071554
S        5.04018923       7.43200547       4.99047093        2       0.00000000       0.00129352      -0.00178563       0.00428346
S        2.40707952       4.95751255       0.05750392        2       0.00000000       0.00022034      -0.00701294      -0.00124724
S        7.44836995       2.50444526       7.44845910        2       0.00000000      -0.00001234       0.00088934      -0.00076028
S        9.83173425       9.80618645       2.51244473        2       0.00000000       0.00146013      -0.00586340       0.00152981
S        4.89177234       7.45006579       9.87452252        2       0.00000000      -0.00220189      -0.00109015       0.00377438
S        2.40123492       4.85050984       4.86521289        2       0.00000000       0.01152908       0.00148738      -0.00132232
S        5.00005519       4.99483227       7.46851479        2       0.00000000      -0.00375638       0.00574153      -0.00332109
S        2.43742829       7.34482333       2.43950026        2       0.00000000       0.00747805      -0.00353372       0.00276291
S        0.05104698       2.40760163       4.97585588        2       0.00000000      -0.00070860       0.00233713       0.00021160
S        7.36845878       0.03839654       0.05577934        2       0.00000000      -0.00051499      -0.00332161      -0.00487095
S        7.46932063       7.43627774       2.49968181        2       0.00000000       0.00374327       0.00125701      -0.00550242
S        9.82765888       4.89129331       7.46578512        2       0.00000000       0.00126987      -0.00371653      -0.00458453
S        4.87043945       2.40901278       4.87595551        2       0.00000000       0.00077107      -0.00007765      -0.00496634
S        2.51018994       9.80242446       9.82658640        2       0.00000000      -0.00140871      -0.00640076       0.00110609
S        4.97953748       0.06688520       2.39642249        2       0.00000000       0.00118656       0.00764415      -0.00256468
S        2.42323778       2.41445964       7.35764915        2       0.00000000      -0.00236721      -0.00280739       0.00074176
S        0.03930548       7.36337483       0.04564207        2       0.00000000      -0.00173087      -0.00727596      -0.00310538
S        7.49089456       5.01981023       5.00518503        2       0.00000000      -0.00832600       0.00655811      -0.00479999
H        4.80329839       6.18067872       4.47768128        0       0.00000000      -0.03346985       0.04894378       0.08889923
56
Lattice="9.876 0.0 0.0 0.0 9.876 0.0 0.0 0.0 9.876" Properties=species:S:1:pos:R:3:spacegroup_kinds:I:1:initial_magmoms:R:1:forces:R:3 meta_mineral=greigite meta_method=PBE_U0_ONCV meta_U_eV=0.0 meta_nspin=2 meta_spacegroup="F d -3 m" meta_unit_cell=conventional meta_image_index=8 meta_rc=1.0 meta_reaction=V_Fe_16d_SH_hop_channel_edge meta_barrier_meV=235.9654 meta_source_file=results/dft_datasets/2026-09-21_greigite_two_stream/greig_channel/final_08.xyz meta_note="V_Fe(16d) + S-H hop along the octahedron edge that faces the EMPTY 16c site. Replaces the retracted trans-axis band." energy=-88090.59643994221 pbc="T T T"
Fe       1.21589327       1.20387067       1.21589327        0       5.00000000       0.00205997      -0.00137605       0.00205997
Fe       6.15917325       1.22255448       6.15917325        0       5.00000000       0.01415675      -0.01956661       0.01415675
Fe       1.25944068       6.14616826       6.17516289        0       5.00000000      -0.01209344       0.01558808       0.02090358
Fe       6.17516289       6.14616826       1.25944068        0       5.00000000       0.02090358       0.01558808      -0.01209344
Fe       8.64508878       3.70783462       3.71294671        0       5.00000000       0.00511907      -0.00462464       0.00330618
Fe       8.65279767       8.65331274       8.65279767        0       5.00000000      -0.00467349      -0.00424412      -0.00467349
Fe       3.71294671       3.70783462       8.64508878        0       5.00000000       0.00330618      -0.00462464       0.00511907
Fe       3.66737171       8.69478801       3.66737171        0       5.00000000      -0.00685173       0.04486344      -0.00685173
Fe       2.44526642       7.36952275       0.04151488        1      -4.00000000      -0.01251099      -0.02535005      -0.00901249
Fe       7.39171633       0.00715106       2.47530213        1      -4.00000000       0.01439484      -0.00661133       0.00438013
Fe       0.00373515       2.47179602       7.39144098        1      -4.00000000       0.01153243       0.00317326      -0.00787632
Fe       4.94534064       0.01108953      -0.00711710        1      -4.00000000       0.00467915      -0.00094000      -0.02157978
Fe       2.54693357       2.52755614       4.88101505        1      -4.00000000      -0.00228957       0.01970416      -0.01287428
Fe       7.35706286       4.99559476       7.35706286        1      -4.00000000       0.01167744       0.00433797       0.01167744
Fe       0.04151488       7.36952275       2.44526642        1      -4.00000000      -0.00901249      -0.02535005      -0.01251099
Fe       0.00095917       4.93316574       0.00095917        1      -4.00000000      -0.00489127      -0.00987509      -0.00489127
Fe       7.53157463       7.34352433       4.92068164        1      -4.00000000      -0.00165219       0.01360088      -0.00029979
Fe       2.47530213       0.00715106       7.39171633        1      -4.00000000       0.00438013      -0.00661133       0.01439484
Fe       4.88101505       2.52755614       2.54693357        1      -4.00000000      -0.01287428       0.01970416      -0.00228957
Fe      -0.00711710       0.01108953       4.94534064        1      -4.00000000      -0.02157978      -0.00094000       0.00467915
Fe       7.39144098       2.47179602       0.00373515        1      -4.00000000      -0.00787632       0.00317326       0.01153243
Fe       2.53038660       4.87596274       2.53038660        1      -4.00000000       0.00284210      -0.02378013       0.00284210
Fe       4.92068164       7.34352433       7.53157463        1      -4.00000000      -0.00029979       0.01360088      -0.00165219
S        2.47995078       2.46803151       2.47995078        2       0.00000000       0.02159521       0.02468953       0.02159521
S        4.89034637       9.81467220       7.46112488        2       0.00000000      -0.00242661       0.00928194      -0.00718083
S        9.89899831       7.46472767       4.89744634        2       0.00000000       0.00170850      -0.01533020      -0.00026611
S        7.46919625       4.89366685       9.83505379        2       0.00000000      -0.01517157      -0.00084615      -0.00032113
S        0.05740755       4.96594597       2.40939933        2       0.00000000       0.00799767       0.00085592       0.00988332
S        7.38047175       7.39947399       7.38047175        2       0.00000000      -0.00612565      -0.01803655      -0.00612565
S        4.97546458       2.40908571       0.05194375        2       0.00000000       0.00378029       0.01114599      -0.00367102
S        2.40451646       0.07164737       4.97415177        2       0.00000000       0.00891813       0.00274594      -0.01162087
S        2.50508028       7.44741373       7.47884042        2       0.00000000      -0.00764158      -0.00171853      -0.00393713
S        4.86329809       4.85052315       2.41819572        2       0.00000000      -0.00576801      -0.00185659       0.00816120
S        9.82356285       2.49564980       9.82356285        2       0.00000000       0.00353270      -0.00233071       0.00353270
S        7.46112488       9.81467220       4.89034637        2       0.00000000      -0.00718083       0.00928194      -0.00242661
S        0.05255929       0.04424370       7.37008276        2       0.00000000      -0.00282307      -0.00415645      -0.00359260
S        7.35934106       2.42279839       2.42796100        2       0.00000000       0.00473469       0.00500542       0.00311515
S        5.03631286       7.46045603       5.03631286        2       0.00000000       0.02144351       0.01189084       0.02144351
S        2.40939933       4.96594597       0.05740755        2       0.00000000       0.00988332       0.00085592       0.00799767
S        7.45056529       2.51136148       7.45056529        2       0.00000000      -0.00168870       0.00613491      -0.00168870
S        9.82462230       9.80947406       2.51082105        2       0.00000000       0.01496253      -0.00610663       0.00145884
S        4.89744634       7.46472767       9.89899831        2       0.00000000      -0.00026611      -0.01533020       0.00170850
S        2.41819572       4.85052315       4.86329809        2       0.00000000       0.00816120      -0.00185659      -0.00576801
S        5.00926491       5.02853733       7.49340227        2       0.00000000      -0.00570194      -0.00473263      -0.02115272
S        2.44500612       7.34788187       2.44500612        2       0.00000000       0.00408471      -0.00710807       0.00408471
S        0.05194375       2.40908571       4.97546458        2       0.00000000      -0.00367102       0.01114599       0.00378029
S        7.37008276       0.04424370       0.05255929        2       0.00000000      -0.00359260      -0.00415645      -0.00282307
S        7.47884042       7.44741373       2.50508028        2       0.00000000      -0.00393713      -0.00171853      -0.00764158
S        9.83505379       4.89366685       7.46919625        2       0.00000000      -0.00032113      -0.00084615      -0.01517157
S        4.87230534       2.41100161       4.87230534        2       0.00000000      -0.00936601       0.01100175      -0.00936601
S        2.51082105       9.80947406       9.82462230        2       0.00000000       0.00145884      -0.00610663       0.01496253
S        4.97415177       0.07164737       2.40451646        2       0.00000000      -0.01162087       0.00274594       0.00891813
S        2.42796100       2.42279839       7.35934106        2       0.00000000       0.00311515       0.00500542       0.00473469
S        0.04448626       7.37214749       0.04448626        2       0.00000000       0.00559318      -0.01355691       0.00559318
S        7.49340227       5.02853733       5.00926491        2       0.00000000      -0.02115272      -0.00473263      -0.00570194
H        4.68030063       6.19220347       4.68030063        0       0.00000000      -0.01096113      -0.02070047      -0.01096113
