72
Lattice="11.022 0.0 0.0 0.0 11.022 0.0 0.0 0.0 10.066" Properties=species:S:1:pos:R:3:spacegroup_kinds:I:1:forces:R:3 spacegroup="P 4/n m m" unit_cell=conventional nspins=1 nkpts=8 fermi_level=9.4096 natoms=72 mineral=mackinawite rc=1.0 image_index=8 U_eV=0.0 nspin=1 source_file=results/dft_datasets/2026-05-03/mack_vfe_w3_aborted_2026-05-03/neb_canonical_mack_72at_qe_VFe/relaxed_endB.xyz method=PBE_U0_ONCV geometry=dft_relaxed vacancy_type=V_Fe_SH energy=-130159.5889746155 pbc="T T T"
Fe       0.00000000      -0.00281609       0.00914316        0       0.00000000      -0.00076542       0.00011493
Fe       1.83745708       1.83433608       0.00886701        0      -0.00072017      -0.00169796       0.00150872
S        0.00000000       1.83441661       1.16658400        1       0.00000000      -0.00144290       0.00306707
S        1.82838238      -0.01410190       3.88023699        1       0.00271226       0.00747548       0.00715641
Fe       0.00000000      -0.01465462       5.05350610        0       0.00000000       0.00085618      -0.00886156
Fe       1.82163361       1.81870311       5.03927371        0      -0.00371936      -0.01271411      -0.00612642
S       -0.00000000       1.82654023       6.21170783        1       0.00000000       0.00725077      -0.00483547
S        1.83708836      -0.00266256       8.91686656        1      -0.00094668      -0.00072428      -0.00090940
Fe      -0.00000000       3.67080988       0.00691721        0       0.00000000      -0.00055639       0.00007945
Fe       1.83728619       5.50822231       0.00646738        0       0.00181957       0.00020749       0.00301128
S        0.00000000       5.50802950       1.16501407        1       0.00000000       0.00054533       0.00073714
S        1.81818969       3.65436404       3.86603273        1      -0.00722326      -0.00189156      -0.00836663
Fe      -0.00000000       3.66291781       5.04373373        0       0.00000000       0.00142593       0.01051581
Fe       1.83185028       5.50511976       5.04316581        0       0.01805223       0.00439247       0.00331004
S        0.00000000       5.50653969       6.20540126        1       0.00000000      -0.01043996       0.00652083
S        1.83774763       3.67043235       8.91548988        1       0.00092817      -0.00049365       0.00091737
Fe      -0.00000000       7.34542067       0.00725796        0       0.00000000       0.00099527      -0.00067723
Fe       1.83702157       9.18221271       0.00838512        0      -0.00031110       0.00002340       0.00137708
S        0.00000000       9.18184201       1.16662780        1       0.00000000       0.00065460       0.00262870
S        1.82617321       7.35565488       3.87285459        1      -0.00877980      -0.00778993       0.00472929
Fe       0.00000000       7.34492184       5.04097109        0       0.00000000       0.00752485      -0.00581866
Fe       1.82882696       9.18284083       5.05051940        0      -0.00199003      -0.00181520      -0.00497123
S        0.00000000       9.17333566       6.21770877        1       0.00000000       0.00046460      -0.00437910
S        1.83752406       7.34593333       8.91544583        1       0.00043092      -0.00001800      -0.00001234
Fe       3.67435266      -0.00281708       0.00860479        0      -0.00090940      -0.00038695       0.00061038
Fe       5.51100000       1.83411636       0.00529303        0       0.00000000       0.00063686       0.00081118
S        3.67582118       1.83496308       1.16597630        1      -0.00040006      -0.00006171       0.00133723
S        5.51100000       0.00196394       3.89998979        1       0.00000000      -0.00632209      -0.00494500
Fe       3.67221743      -0.01110241       5.04209182        0       0.00625909       0.00393610      -0.00906854
Fe       5.51100000       1.84035612       5.06306471        0       0.00000000      -0.02064004       0.01446631
S        3.66361937       1.82281438       6.19748809        1      -0.00348642      -0.00701757       0.01208804
S        5.51100000      -0.00331826       8.91489941        1       0.00000000      -0.00064072       0.00150101
Fe       3.67511518       3.67162615       0.00719943        0       0.00047977      -0.00017304       0.00046640
Fe       5.51100000       5.50896005       0.00529499        0       0.00000000      -0.00186225       0.00096494
S        3.67449891       5.50873216       1.16536073        1       0.00153161      -0.00098293       0.00319948
S        5.51100000       3.74408027       3.91442067        1       0.00000000       0.01098607      -0.02296792
Fe       3.61506447       3.67320403       5.06298948        0       0.00035687       0.01371246       0.00419501
S        3.61656452       5.50299910       6.15488573        1      -0.00476837      -0.02555574      -0.00263024
S        5.51100000       3.67230624       8.91301690        1       0.00000000      -0.00018512      -0.00167405
Fe       3.67464103       7.34556053       0.00767443        0       0.00166299      -0.00235230       0.00041061
Fe       5.51100000       9.18234276       0.00834823        0       0.00000000      -0.00202243       0.00059213
S        3.67417853       9.18175647       1.16722039        1       0.00054430      -0.00102793       0.00156683
S        5.51100000       7.29510225       3.97593570        1       0.00000000      -0.00544714      -0.01642601
Fe       3.65182803       7.33630289       5.05920513        0      -0.01238835       0.02298720      -0.00176583
Fe       5.51100000       9.15271415       5.03268185        0       0.00000000       0.00733099      -0.00092791
S        3.66975893       9.18379980       6.20926557        1      -0.00586340       0.01097475       0.00057207
S        5.51100000       7.34578063       8.91407306        1       0.00000000      -0.00283490      -0.00168973
Fe       7.34764734      -0.00281708       0.00860479        0       0.00090940      -0.00038695       0.00061038
Fe       9.18454292       1.83433608       0.00886701        0       0.00072017      -0.00169796       0.00150872
S        7.34617882       1.83496308       1.16597630        1       0.00040006      -0.00006171       0.00133723
S        9.19361762      -0.01410190       3.88023699        1      -0.00271226       0.00747548       0.00715641
Fe       7.34978257      -0.01110241       5.04209182        0      -0.00625909       0.00393610      -0.00906854
Fe       9.20036639       1.81870311       5.03927371        0       0.00371936      -0.01271411      -0.00612642
S        7.35838063       1.82281438       6.19748809        1       0.00348642      -0.00701757       0.01208804
S        9.18491164      -0.00266256       8.91686656        1       0.00094668      -0.00072428      -0.00090940
Fe       7.34688482       3.67162615       0.00719943        0      -0.00047977      -0.00017304       0.00046640
Fe       9.18471381       5.50822231       0.00646738        0      -0.00181957       0.00020749       0.00301128
S        7.34750109       5.50873216       1.16536073        1      -0.00153161      -0.00098293       0.00319948
S        9.20381031       3.65436404       3.86603273        1       0.00722326      -0.00189156      -0.00836663
Fe       7.40693553       3.67320403       5.06298948        0      -0.00035687       0.01371246       0.00419501
Fe       9.19014972       5.50511976       5.04316581        0      -0.01805223       0.00439247       0.00331004
S        7.40543548       5.50299910       6.15488573        1       0.00476837      -0.02555574      -0.00263024
S        9.18425237       3.67043235       8.91548988        1      -0.00092817      -0.00049365       0.00091737
Fe       7.34735897       7.34556053       0.00767443        0      -0.00166299      -0.00235230       0.00041061
Fe       9.18497843       9.18221271       0.00838512        0       0.00031110       0.00002340       0.00137708
S        7.34782147       9.18175647       1.16722039        1      -0.00054430      -0.00102793       0.00156683
S        9.19582679       7.35565488       3.87285459        1       0.00877980      -0.00778993       0.00472929
Fe       7.37017197       7.33630289       5.05920513        0       0.01238835       0.02298720      -0.00176583
Fe       9.19317304       9.18284083       5.05051940        0       0.00199003      -0.00181520      -0.00497123
S        7.35224107       9.18379980       6.20926557        1       0.00586340       0.01097475       0.00057207
S        9.18447594       7.34593333       8.91544583        1      -0.00043092      -0.00001800      -0.00001234
H        5.51100000       5.17510863       3.85834018        0       0.00000000       0.01647434       0.00599298
