72
Lattice="11.022 0.0 0.0 0.0 11.022 0.0 0.0 0.0 10.066" Properties=species:S:1:pos:R:3:forces:R:3 spacegroup="P 4/n m m" unit_cell=conventional mineral=mackinawite rc=0.0 image_index=0 U_eV=0.0 nspin=1 source_file=results/dft_datasets/2026-05-03/mack_vfe_w3_aborted_2026-05-03/neb_canonical_mack_72at_qe_VFe/neb.traj method=PBE_U0_ONCV vacancy_type=V_Fe_SH reaction=S_H_transfer energy=-130159.58896658814 pbc="T T T"
Fe       0.00000000       0.00281442       0.00914587       0.00000000       0.00076182       0.00007816
Fe       1.83701823       1.83978590       0.00838302      -0.00029233      -0.00003060       0.00138248
S        0.00000000       1.84015630       1.16662578       0.00000000      -0.00063763       0.00267652
S        1.82841731       0.01411913       3.88027088       0.00252225      -0.00747625       0.00708905
Fe      -0.00000000       0.01469118       5.05351721       0.00000000      -0.00098987      -0.00881348
Fe       1.82884167       1.83918249       5.05052352      -0.00196689       0.00183860      -0.00475346
S       -0.00000000       1.84873029       6.21772149       0.00000000      -0.00087238      -0.00455317
S        1.83708467       0.00266116       8.91686494      -0.00093562       0.00072582      -0.00092174
Fe      -0.00000000       3.67658026       0.00725853       0.00000000      -0.00101790      -0.00068417
Fe       1.83728478       5.51377860       0.00646416       0.00184014      -0.00022060       0.00299508
S        0.00000000       5.51397350       1.16500565       0.00000000      -0.00055973       0.00082198
S        1.82617346       3.66635934       3.87284574      -0.00867387       0.00761432       0.00465164
Fe      -0.00000000       3.67709715       5.04095800       0.00000000      -0.00748731      -0.00585954
Fe       1.83182746       5.51688115       5.04313183       0.01813476      -0.00439222       0.00352293
S        0.00000000       5.51546984       6.20540282       0.00000000       0.01065491       0.00619816
S        1.83752199       3.67606504       8.91544666       0.00042835       0.00003034      -0.00004217
Fe      -0.00000000       7.35118911       0.00691246       0.00000000       0.00058030       0.00006608
Fe       1.83745460       9.18766080       0.00886086      -0.00068803       0.00171621       0.00153983
S        0.00000000       9.18758102       1.16657980       0.00000000       0.00143133       0.00310332
S        1.81820207       7.36762864       3.86601854      -0.00693092       0.00207848      -0.00832292
Fe       0.00000000       7.35909265       5.04365875       0.00000000      -0.00152106       0.01114650
Fe       1.82164932       9.20329923       5.03927635      -0.00375947       0.01264391      -0.00616139
S        0.00000000       9.19546282       6.21169605       0.00000000      -0.00729705      -0.00505170
S        1.83774707       7.35156700       8.91548568       0.00093974       0.00048234       0.00090117
Fe       3.67434901       0.00281514       0.00860391      -0.00088626       0.00039209       0.00058313
Fe       5.51100000       1.83965649       0.00834652       0.00000000       0.00200058       0.00061501
S        3.67417598       1.84024112       1.16721659       0.00055022       0.00103050       0.00159563
S        5.51100000      -0.00197378       3.90003218       0.00000000       0.00635500      -0.00511830
Fe       3.67223723       0.01110857       5.04214367       0.00617168      -0.00385923      -0.00914978
Fe       5.51100000       1.86927891       5.03271465       0.00000000      -0.00740529      -0.00082815
S        3.66977872       1.83822567       6.20930593      -0.00611923      -0.01102643       0.00045097
S        5.51100000       0.00331789       8.91489861       0.00000000       0.00063223       0.00151309
Fe       3.67463801       3.67643830       0.00767378       0.00168176       0.00232993       0.00040726
Fe       5.51100000       5.51303524       0.00529538       0.00000000       0.00187819       0.00094385
S        3.67449767       5.51326540       1.16535514       0.00152364       0.00099219       0.00325656
S        5.51100000       3.72683461       3.97593801       0.00000000       0.00589554      -0.01672863
Fe       3.65184122       3.68570934       5.05920975      -0.01255830      -0.02320601      -0.00185505
S        3.61650830       5.51897004       6.15490525      -0.00456062       0.02573391      -0.00246980
S        5.51100000       3.67621638       8.91407604       0.00000000       0.00284724      -0.00172701
Fe       3.67511626       7.35037045       0.00719652       0.00046203       0.00019720       0.00046768
Fe       5.51100000       9.18788148       0.00528888       0.00000000      -0.00063481       0.00080707
S        3.67582156       9.18703556       1.16597136      -0.00042372       0.00004757       0.00134906
S        5.51100000       7.27793297       3.91443494       0.00000000      -0.01153834      -0.02317438
Fe       3.61509418       7.34875753       5.06302053       0.00000051      -0.01351243       0.00396336
Fe       5.51100000       9.18158226       5.06304084       0.00000000       0.02117689       0.01476636
S        3.66363216       9.19917837       6.19748976      -0.00351161       0.00681008       0.01222714
S        5.51100000       7.34968816       8.91301641       0.00000000       0.00019489      -0.00170078
Fe       7.34765099       0.00281514       0.00860391       0.00088626       0.00039209       0.00058313
Fe       9.18498177       1.83978590       0.00838302       0.00029233      -0.00003060       0.00138248
S        7.34782402       1.84024112       1.16721659      -0.00055022       0.00103050       0.00159563
S        9.19358269       0.01411913       3.88027088      -0.00252225      -0.00747625       0.00708905
Fe       7.34976277       0.01110857       5.04214367      -0.00617168      -0.00385923      -0.00914978
Fe       9.19315833       1.83918249       5.05052352       0.00196689       0.00183860      -0.00475346
S        7.35222128       1.83822567       6.20930593       0.00611923      -0.01102643       0.00045097
S        9.18491533       0.00266116       8.91686494       0.00093562       0.00072582      -0.00092174
Fe       7.34736199       3.67643830       0.00767378      -0.00168176       0.00232993       0.00040726
Fe       9.18471522       5.51377860       0.00646416      -0.00184014      -0.00022060       0.00299508
S        7.34750233       5.51326540       1.16535514      -0.00152364       0.00099219       0.00325656
S        9.19582654       3.66635934       3.87284574       0.00867387       0.00761432       0.00465164
Fe       7.37015878       3.68570934       5.05920975       0.01255830      -0.02320601      -0.00185505
Fe       9.19017254       5.51688115       5.04313183      -0.01813476      -0.00439222       0.00352293
S        7.40549170       5.51897004       6.15490525       0.00456062       0.02573391      -0.00246980
S        9.18447801       3.67606504       8.91544666      -0.00042835       0.00003034      -0.00004217
Fe       7.34688374       7.35037045       0.00719652      -0.00046203       0.00019720       0.00046768
Fe       9.18454540       9.18766080       0.00886086       0.00068803       0.00171621       0.00153983
S        7.34617844       9.18703556       1.16597136       0.00042372       0.00004757       0.00134906
S        9.20379793       7.36762864       3.86601854       0.00693092       0.00207848      -0.00832292
Fe       7.40690582       7.34875753       5.06302053      -0.00000051      -0.01351243       0.00396336
Fe       9.20035068       9.20329923       5.03927635       0.00375947       0.01264391      -0.00616139
S        7.35836784       9.19917837       6.19748976       0.00351161       0.00681008       0.01222714
S        9.18425293       7.35156700       8.91548568      -0.00093974       0.00048234       0.00090117
H        5.51100000       5.84689928       3.85817237       0.00000000      -0.01632676       0.00608863
72
Lattice="11.022 0.0 0.0 0.0 11.022 0.0 0.0 0.0 10.066" Properties=species:S:1:pos:R:3:forces:R:3 spacegroup="P 4/n m m" unit_cell=conventional mineral=mackinawite rc=0.125 image_index=1 U_eV=0.0 nspin=1 source_file=results/dft_datasets/2026-05-03/mack_vfe_w3_aborted_2026-05-03/neb_canonical_mack_72at_qe_VFe/neb.traj method=PBE_U0_ONCV vacancy_type=V_Fe_SH reaction=S_H_transfer energy=-130159.58741077725 pbc="T T T"
Fe       0.00002900       0.00136829       0.00958217       0.00005734       0.00003471       0.00049751
Fe       1.83723351       1.83827963       0.00910404      -0.00004011       0.00002391       0.00022883
S        0.00002869       1.83847323       1.16726609       0.00009642       0.00010670       0.00052091
S        1.82896277       0.00494808       3.87680690      -0.00059290      -0.00154780      -0.00396593
Fe       0.00043445       0.00608858       5.04929108       0.00079499      -0.00203117      -0.00188848
Fe       1.82810972       1.83107289       5.04558263      -0.00010207      -0.00272743      -0.00113617
S        0.00043269       1.83934065       6.21462730       0.00090014      -0.00367334      -0.00261893
S        1.83730958       0.00116061       8.91745290      -0.00010644      -0.00000540       0.00025325
Fe       0.00003370       3.67482442       0.00772210       0.00005425       0.00007276       0.00065923
Fe       1.83770454       5.51223051       0.00756241       0.00002134       0.00002031       0.00067029
S        0.00001552       5.51220416       1.16564195       0.00006736      -0.00013833       0.00089886
S        1.82365989       3.66173782       3.87209968       0.00185736      -0.00267935       0.00177072
Fe       0.00050347       3.66993989       5.04277553       0.00065769      -0.00165733      -0.00018126
Fe       1.83091631       5.50956667       5.04480628       0.00243818      -0.00140228       0.00246235
S        0.00097917       5.50994788       6.20853362       0.00070114      -0.00273977      -0.00048902
S        1.83777879       3.67454693       8.91613473       0.00000977       0.00012110       0.00042063
Fe       0.00003229       7.34980452       0.00794319       0.00005039      -0.00003805       0.00083509
Fe       1.83752896       9.18640123       0.00994304       0.00005348       0.00006839       0.00045123
S        0.00002128       9.18636757       1.16759559       0.00008999       0.00011544       0.00057850
S        1.81910517       7.36018620       3.86772885      -0.00114543      -0.00142593      -0.00112974
Fe       0.00058713       7.35340653       5.04592886       0.00044609      -0.00399035       0.00059058
Fe       1.82390548       9.19670338       5.03845701      -0.00151644      -0.00016506      -0.00294494
S        0.00046308       9.19010859       6.21066298       0.00095671      -0.00181366      -0.00354478
S        1.83796307       7.35023152       8.91665103      -0.00007739      -0.00000823       0.00057721
Fe       3.67446679       0.00131347       0.00947212      -0.00004397       0.00008279       0.00023397
Fe       5.51101273       1.83861387       0.00799551       0.00007636       0.00008742       0.00050162
S        3.67473626       1.83924382       1.16756602      -0.00004371      -0.00004397       0.00046177
S        5.51130398      -0.00668676       3.89147908       0.00121253      -0.00771691       0.00003574
Fe       3.67480426       0.00311512       5.03418896      -0.00250940      -0.00186791      -0.00085746
Fe       5.51170805       1.86473105       5.02692707       0.00032267      -0.00136577      -0.00168433
S        3.67011524       1.82846636       6.20279851      -0.00086543      -0.00404615       0.00422972
S        5.51101025       0.00165846       8.91548749       0.00006248       0.00029233       0.00035918
Fe       3.67507990       3.67542388       0.00801875       0.00014424       0.00011647       0.00044789
Fe       5.51102831       5.51200043       0.00565109       0.00009847       0.00008382       0.00033707
S        3.67504109       5.51190816       1.16634680       0.00014501      -0.00001774       0.00052528
S        5.51282740       3.73573277       3.98122498      -0.00066334      -0.01598763       0.00353038
Fe       3.64672527       3.67920114       5.06000780       0.00556284      -0.00406697      -0.00195070
S        3.61198356       5.51042012       6.15959890       0.00571608       0.00240347      -0.00196689
S        5.51101870       3.67548058       8.91376856       0.00008150       0.00004371       0.00033296
Fe       3.67536723       7.34893647       0.00812401       0.00009513      -0.00003085       0.00046588
Fe       5.51102698       9.18627225       0.00616587       0.00007122       0.00011750       0.00020749
S        3.67602425       9.18540261       1.16707802       0.00011184       0.00019540       0.00032190
S        5.51348566       7.22987325       3.93311811      -0.00153701       0.01892538      -0.00779147
Fe       3.61842798       7.33540005       5.06465634      -0.00448400       0.00176840       0.00050651
Fe       5.51194265       9.16873709       5.04832791      -0.00005914      -0.00262690       0.00466501
S        3.66955677       9.19222223       6.19163139      -0.00307710       0.00253536       0.00127372
S        5.51103349       7.34852662       8.91338851       0.00008228      -0.00008099       0.00024194
Fe       7.34756771       0.00133274       0.00948325       0.00016069       0.00007379       0.00026302
Fe       9.18481069       1.83826620       0.00914066       0.00016892       0.00004165       0.00029079
S        7.34728524       1.83923721       1.16758634       0.00015632      -0.00002443       0.00047977
S        9.19378303       0.00511953       3.87675273       0.00201574      -0.00164576      -0.00338537
Fe       7.34789565       0.00338634       5.03391167       0.00426700      -0.00220961       0.00038669
Fe       9.19468034       1.83091861       5.04595337       0.00149047      -0.00243612      -0.00089629
S        7.35284826       1.82770029       6.20367236       0.00170541      -0.00327301       0.00386591
S        9.18474193       0.00118288       8.91746812       0.00022446      -0.00001646       0.00031033
Fe       7.34697809       3.67538599       0.00802673      -0.00000154       0.00016635       0.00045689
Fe       9.18438993       5.51222618       0.00748959       0.00006916       0.00002520       0.00069086
S        7.34708250       5.51189591       1.16627921      -0.00002854      -0.00000360       0.00061501
S        9.19906508       3.66165993       3.87256267      -0.00050882      -0.00204197       0.00219726
Fe       7.37744038       3.67885082       5.06217256      -0.00567597      -0.00320462      -0.00325553
Fe       9.19288632       5.50947141       5.04534267      -0.00196098      -0.00124261       0.00364814
S        7.41362654       5.51015180       6.16263953      -0.00757061       0.00250991      -0.00354658
S        9.18429817       3.67449180       8.91615510       0.00011519       0.00012907       0.00041472
Fe       7.34670513       7.34896854       0.00814876       0.00005476      -0.00007276       0.00046177
Fe       9.18451943       9.18643094       0.00994524       0.00008305       0.00004962       0.00051962
S        7.34602942       9.18543906       1.16708923       0.00000206       0.00016224       0.00035147
S        9.20399166       7.36014059       3.86822864       0.00191007      -0.00177406      -0.00083149
Fe       7.40712542       7.33600348       5.06779095       0.00297554       0.00063583      -0.00161979
Fe       9.19914292       9.19709399       5.03868458       0.00268449      -0.00068494      -0.00259681
S        7.35380031       9.19353774       6.19260339       0.00344476       0.00113771       0.00064329
S        9.18411694       7.35028110       8.91666851       0.00020209      -0.00000797       0.00056770
H        5.52315909       5.78154879       3.87257945      -0.01215566       0.05038617       0.00202577
72
Lattice="11.022 0.0 0.0 0.0 11.022 0.0 0.0 0.0 10.066" Properties=species:S:1:pos:R:3:forces:R:3 spacegroup="P 4/n m m" unit_cell=conventional mineral=mackinawite rc=0.25 image_index=2 U_eV=0.0 nspin=1 source_file=results/dft_datasets/2026-05-03/mack_vfe_w3_aborted_2026-05-03/neb_canonical_mack_72at_qe_VFe/neb.traj method=PBE_U0_ONCV vacancy_type=V_Fe_SH reaction=S_H_transfer energy=-130159.58359601336 pbc="T T T"
Fe       0.00008761       0.00055273       0.00941535       0.00012753      -0.00006942       0.00055562
Fe       1.83736541       1.83745018       0.00911151       0.00005245      -0.00011981       0.00019103
S        0.00010132       1.83756510       1.16720787       0.00014450       0.00002417       0.00064843
S        1.82970915       0.00199137       3.87607339      -0.00100247      -0.00135471      -0.00636785
Fe       0.00114218       0.00319315       5.04859605       0.00163908      -0.00212142      -0.00246260
Fe       1.82866014       1.82847043       5.04411098      -0.00006608      -0.00437010      -0.00065666
S        0.00127825       1.83630464       6.21398113       0.00114517      -0.00416827      -0.00343679
S        1.83753899       0.00034478       8.91743007      -0.00004628      -0.00015401       0.00026302
Fe       0.00009438       3.67400311       0.00778717       0.00010002      -0.00006891       0.00087315
Fe       1.83779940       5.51148202       0.00752751       0.00003780      -0.00022626       0.00075539
S        0.00004422       5.51146854       1.16556554       0.00022626      -0.00025197       0.00127861
S        1.82347243       3.66008960       3.87150200       0.00176249      -0.00428346       0.00277422
Fe       0.00133329       3.66736061       5.04356491       0.00107215      -0.00197255      -0.00107369
Fe       1.82986874       5.50729450       5.04473947       0.00300433      -0.00241992       0.00530959
S        0.00241432       5.50802340       6.20979700      -0.00035533      -0.00413793      -0.00110069
S        1.83783845       3.67370032       8.91619415       0.00003548      -0.00000643       0.00040623
Fe       0.00008916       7.34909790       0.00797050       0.00012136      -0.00022497       0.00091608
Fe       1.83766191       9.18562608       0.00996196       0.00014604      -0.00005142       0.00059932
S        0.00008595       9.18565934       1.16755104       0.00014244      -0.00011699       0.00070345
S        1.82017892       7.35774946       3.86840354      -0.00093614      -0.00163754       0.00032165
Fe       0.00145983       7.35193857       5.04657380       0.00069137      -0.00501288       0.00066900
Fe       1.82569860       9.19429113       5.03857451      -0.00212939       0.00132900      -0.00344836
S        0.00148564       9.18838837       6.21078120       0.00097033      -0.00138197      -0.00485090
S        1.83805457       7.34953948       8.91667694      -0.00011699      -0.00018512       0.00069600
Fe       3.67461150       0.00046838       0.00960807       0.00006813      -0.00006325       0.00029773
Fe       5.51104688       1.83781525       0.00768243       0.00018975      -0.00008382       0.00063532
S        3.67497015       1.83854284       1.16751890      -0.00006376      -0.00025300       0.00053016
S        5.51227154      -0.00768353       3.88839795       0.00103667      -0.00971568       0.00233045
Fe       3.67684726       0.00083312       5.03132621      -0.00443490      -0.00177792      -0.00054867
Fe       5.51254209       1.86593064       5.02399255       0.00063763      -0.00473546      -0.00108578
S        3.67158075       1.82631701       6.19984117      -0.00099810      -0.00597730       0.00707645
S        5.51103292       0.00074424       8.91540720       0.00019052       0.00022471       0.00043966
Fe       3.67516724       3.67468754       0.00798239       0.00029825      -0.00007353       0.00058955
Fe       5.51111438       5.51126203       0.00559298       0.00013035      -0.00011390       0.00030699
S        3.67517202       5.51116559       1.16634065       0.00009436      -0.00022703       0.00056539
S        5.51396531       3.74728845       3.98712377      -0.00080270      -0.02824228       0.00306398
Fe       3.64388119       3.67917524       5.06169775       0.00738549      -0.00665119      -0.00117499
S        3.60716470       5.50719018       6.16455191       0.00818948       0.00301205      -0.00188462
S        5.51107014       3.67477481       8.91362051       0.00014655      -0.00015658       0.00046666
Fe       3.67544044       7.34814876       0.00817507       0.00022111      -0.00022343       0.00053145
Fe       5.51106782       9.18542180       0.00625474       0.00021083       0.00004731       0.00006119
S        3.67613599       9.18448227       1.16726000       0.00030133       0.00009153       0.00031727
S        5.51506092       7.20608888       3.94740269      -0.00166119       0.01584211      -0.01142547
Fe       3.61923215       7.33007931       5.06696323      -0.00536846       0.00241247       0.00220164
Fe       5.51316316       9.16148549       5.04035378      -0.00097650      -0.00250400       0.00806375
S        3.67327092       9.18979805       6.18882437      -0.00501314       0.00363297       0.00238958
S        5.51109498       7.34779117       8.91338635       0.00012393      -0.00030108       0.00027588
Fe       7.34747683       0.00049341       0.00963977       0.00031033      -0.00007430       0.00035507
Fe       9.18478862       1.83742488       0.00920887       0.00015324      -0.00005322       0.00024734
S        7.34711944       1.83854806       1.16755360       0.00036690      -0.00028694       0.00062375
S        9.19443004       0.00230726       3.87602692       0.00343756      -0.00182625      -0.00435185
Fe       7.34755975       0.00126234       5.03128924       0.00588885      -0.00246800       0.00140845
Fe       9.19559877       1.82823455       5.04491132       0.00159614      -0.00334680      -0.00055279
S        7.35277552       1.82534424       6.20127425       0.00232788      -0.00419501       0.00635345
S        9.18459686       0.00037967       8.91749807       0.00034710      -0.00018718       0.00026997
Fe       7.34700102       3.67464288       0.00799017       0.00000180      -0.00005836       0.00063686
Fe       9.18441973       5.51147256       0.00738644       0.00013447      -0.00019566       0.00089063
S        7.34713960       5.51115281       1.16626811      -0.00001723      -0.00020106       0.00067234
S        9.20045851       3.66013898       3.87277202       0.00033193      -0.00281279       0.00237544
Fe       7.38191672       3.67898384       5.06512149      -0.00743255      -0.00545048      -0.00392582
Fe       9.19609511       5.50719158       5.04632672      -0.00464933      -0.00216770       0.00539829
S        7.42099803       5.50693363       6.16926283      -0.01378343       0.00296808      -0.00588705
S        9.18436540       3.67358937       8.91622397       0.00020389       0.00004577       0.00040469
Fe       7.34675729       7.34819115       0.00820397       0.00003728      -0.00023217       0.00054507
Fe       9.18449656       9.18567546       0.01000575       0.00008639      -0.00010799       0.00067440
S        7.34600376       9.18451663       1.16728298      -0.00004705       0.00007919       0.00041292
S        9.20404658       7.35779879       3.87007049       0.00276085      -0.00266392      -0.00137837
Fe       7.40806399       7.33077144       5.07193224       0.00429580       0.00084486      -0.00236567
Fe       9.19905346       9.19510152       5.03937660       0.00279093      -0.00066386      -0.00336660
S        7.35206475       9.19185845       6.19075349       0.00379546       0.00045971       0.00053633
S        9.18415702       7.34963629       8.91670191       0.00034453      -0.00020954       0.00067106
H        5.52217329       5.74329208       3.89376181      -0.00995300       0.09162332      -0.00823421
72
Lattice="11.022 0.0 0.0 0.0 11.022 0.0 0.0 0.0 10.066" Properties=species:S:1:pos:R:3:forces:R:3 spacegroup="P 4/n m m" unit_cell=conventional mineral=mackinawite rc=0.375 image_index=3 U_eV=0.0 nspin=1 source_file=results/dft_datasets/2026-05-03/mack_vfe_w3_aborted_2026-05-03/neb_canonical_mack_72at_qe_VFe/neb.traj method=PBE_U0_ONCV vacancy_type=V_Fe_SH reaction=S_H_transfer energy=-130159.57423611365 pbc="T T T"
Fe       0.00007611      -0.00004459       0.00935955       0.00011081      -0.00006891       0.00070834
Fe       1.83747742       1.83682970       0.00933189      -0.00003471      -0.00017869       0.00030622
S        0.00009225       1.83686669       1.16726882       0.00002494      -0.00003625       0.00084101
S        1.82966150       0.00004398       3.87539521      -0.00229497      -0.00120482      -0.00633905
Fe       0.00098069       0.00110562       5.04800886       0.00005939      -0.00224046      -0.00282076
Fe       1.82823315       1.82647743       5.04320646       0.00007636      -0.00423898      -0.00071631
S        0.00105057       1.83399892       6.21335205       0.00010336      -0.00367848      -0.00447629
S        1.83770103      -0.00020001       8.91755090       0.00003265      -0.00018203       0.00043657
Fe       0.00007835       3.67338945       0.00797760       0.00006222      -0.00018203       0.00128889
Fe       1.83783475       5.51092396       0.00759833      -0.00024914      -0.00031393       0.00070551
S        0.00004934       5.51092647       1.16564172       0.00009899      -0.00028051       0.00168484
S        1.82282000       3.65932397       3.87189627      -0.00038412      -0.00227980       0.00340440
Fe       0.00097247       3.66567639       5.04439344       0.00102510      -0.00212065      -0.00063892
Fe       1.82666917       5.50657200       5.04520088       0.00401195      -0.00274697       0.00840622
S        0.00157799       5.50731267       6.21079390      -0.00055356      -0.00439119       0.00014835
S        1.83785638       3.67301779       8.91644098      -0.00004165      -0.00015581       0.00053505
Fe       0.00007538       7.34856236       0.00811925       0.00008536      -0.00027125       0.00123901
Fe       1.83770855       9.18507134       0.01001522       0.00009590       0.00000874       0.00092611
S        0.00008363       9.18514272       1.16755995       0.00004242      -0.00019952       0.00101250
S        1.82067241       7.35695382       3.87030487      -0.00107009      -0.00205200       0.00041780
Fe       0.00100677       7.35167308       5.04712746       0.00093100      -0.00381809       0.00045303
Fe       1.82600611       9.19351467       5.03953103       0.00054122       0.00201652      -0.00244409
S        0.00120996       9.18763091       6.21130214      -0.00030776      -0.00073225      -0.00608477
S        1.83802730       7.34902889       8.91681325      -0.00020055      -0.00011004       0.00083407
Fe       3.67472343      -0.00012241       0.00986030      -0.00005914      -0.00022883       0.00053967
Fe       5.51105207       1.83723281       0.00743644       0.00011801      -0.00027562       0.00090863
S        3.67526095       1.83805765       1.16764780      -0.00015452      -0.00044917       0.00083844
S        5.51215892      -0.00715177       3.88776620      -0.00018898      -0.01220631       0.00068006
Fe       3.67743628      -0.00064887       5.02946512      -0.00481233       0.00117191      -0.00032807
Fe       5.51198396       1.87122837       5.02094645       0.00087083      -0.01183890      -0.00223043
S        3.67246197       1.82509252       6.19725760      -0.00122102      -0.00294468       0.00857411
S        5.51104360       0.00006071       8.91544934       0.00016327       0.00019180       0.00036664
Fe       3.67521677       3.67416541       0.00815677       0.00019078      -0.00024168       0.00076285
Fe       5.51110179       5.51076313       0.00571874       0.00000951      -0.00020620       0.00044994
S        3.67517720       5.51069049       1.16648472       0.00005965      -0.00036638       0.00089706
S        5.51259460       3.77150606       3.99638542      -0.00062401      -0.04953924       0.00352370
Fe       3.63793256       3.68167767       5.06686342       0.00713507      -0.00618505       0.00005065
S        3.59830507       5.50635677       6.17246036       0.01326715       0.00125778      -0.00094822
S        5.51107328       3.67433515       8.91365370       0.00005194      -0.00027305       0.00046845
Fe       3.67542157       7.34758612       0.00832554       0.00010644      -0.00019258       0.00082070
Fe       5.51106170       9.18476706       0.00645817       0.00011364       0.00017175       0.00007173
S        3.67613879       9.18379024       1.16753127       0.00061809       0.00007225       0.00075668
S        5.51297976       7.18159970       3.96707249      -0.00133954      -0.02464068      -0.00706539
Fe       3.61897547       7.32725933       5.07216274      -0.00954162      -0.00259167       0.00340465
Fe       5.51227629       9.15375822       5.03405572      -0.00018589      -0.00434594       0.00195430
S        3.67422341       9.18982056       6.18918038       0.00093280       0.00002160      -0.00518386
S        5.51108416       7.34722731       8.91350943       0.00002828      -0.00027099       0.00029285
Fe       7.34737140      -0.00011327       0.00988872       0.00028591      -0.00022960       0.00056641
Fe       9.18466056       1.83682220       0.00940720       0.00019309      -0.00018615       0.00027228
S        7.34683345       1.83806609       1.16767455       0.00042397      -0.00046280       0.00093794
S        9.19414110       0.00018441       3.87560159       0.00267755      -0.00158046      -0.00506199
Fe       7.34657640      -0.00048745       5.02987131       0.00452000       0.00079858      -0.00091917
Fe       9.19558301       1.82646894       5.04373650       0.00008433      -0.00363091      -0.00080064
S        7.35118077       1.82484075       6.19791881       0.00278939      -0.00166170       0.00847744
S        9.18442053      -0.00018486       8.91761378       0.00014810      -0.00019515       0.00033527
Fe       7.34693133       3.67415603       0.00816579      -0.00002520      -0.00031727       0.00080013
Fe       9.18432573       5.51092092       0.00752035       0.00040366      -0.00030056       0.00088703
S        7.34704335       5.51068915       1.16647566       0.00003959      -0.00036253       0.00089012
S        9.20079350       3.65959965       3.87268587       0.00041832      -0.00243921       0.00362088
Fe       7.38636870       3.68197563       5.06847934      -0.00831135      -0.00880937      -0.00277011
Fe       9.19775760       5.50657833       5.04644041      -0.00640488      -0.00278296       0.00777527
S        7.42643031       5.50630512       6.17448039      -0.01346024       0.00148044      -0.00212167
S        9.18430389       3.67295637       8.91645492       0.00020235      -0.00011570       0.00057001
Fe       7.34674130       7.34759825       0.00834051       0.00002083      -0.00013704       0.00084564
Fe       9.18443285       9.18508973       0.01006583       0.00004551       0.00001671       0.00090863
S        7.34597907       9.18379506       1.16755278      -0.00039081       0.00008048       0.00086106
S        9.20289707       7.35691625       3.87138354       0.00167944      -0.00246492      -0.00058184
Fe       7.40558638       7.32722376       5.07431103       0.00899320      -0.00061578       0.00034170
Fe       9.19801218       9.19382523       5.04017166      -0.00067106       0.00102767      -0.00261301
S        7.34986162       9.19051136       6.19009719      -0.00104387      -0.00155475      -0.00547182
S        9.18413756       7.34908503       8.91682341       0.00035661      -0.00014424       0.00084435
H        5.51328728       5.68567097       3.91734278      -0.00067826       0.16795500      -0.01802755
72
Lattice="11.022 0.0 0.0 0.0 11.022 0.0 0.0 0.0 10.066" Properties=species:S:1:pos:R:3:forces:R:3 spacegroup="P 4/n m m" unit_cell=conventional mineral=mackinawite rc=0.5 image_index=4 U_eV=0.0 nspin=1 source_file=results/dft_datasets/2026-05-03/mack_vfe_w3_aborted_2026-05-03/neb_canonical_mack_72at_qe_VFe/neb.traj method=PBE_U0_ONCV vacancy_type=V_Fe_SH reaction=S_H_transfer energy=-130159.54608648126 pbc="T T T"
Fe       0.00000048      -0.00078242       0.00937548      -0.00000257      -0.00006119       0.00078444
Fe       1.83765888       1.83605861       0.00995857      -0.00006248      -0.00029336       0.00087289
S       -0.00000037       1.83597830       1.16753102       0.00000231      -0.00029953       0.00145910
S        1.82932779      -0.00252740       3.87520843      -0.00321928      -0.00051782      -0.00637634
Fe       0.00000481      -0.00226770       5.04740161       0.00000154      -0.00135189      -0.00388057
Fe       1.82708484       1.82462481       5.04147723       0.00069934      -0.00290766      -0.00220241
S        0.00002963       1.83105733       6.21182558      -0.00005502      -0.00284415      -0.00539520
S        1.83789507      -0.00078104       8.91780332      -0.00006891      -0.00012856       0.00037127
Fe       0.00000079       3.67264176       0.00837918      -0.00000077      -0.00032910       0.00181134
Fe       1.83777242       5.51024865       0.00777064      -0.00017638      -0.00015324       0.00093100
S        0.00000035       5.51026115       1.16590762       0.00000077      -0.00021906       0.00183217
S        1.82110341       3.66031618       3.87252735       0.00018203       0.00193398       0.00335066
Fe       0.00001134       3.66447241       5.04631470       0.00001928       0.00204351       0.00280250
Fe       1.82240692       5.50837220       5.04693607       0.00612180       0.00110609       0.01141724
S        0.00000838       5.50841352       6.21226904      -0.00000489      -0.00012804       0.00249294
S        1.83785954       3.67208022       8.91697085      -0.00013730      -0.00025942       0.00103770
Fe       0.00000004       7.34787834       0.00841233       0.00000129      -0.00004448       0.00178846
Fe       1.83765608       9.18442145       0.01002849      -0.00002494       0.00001388       0.00078573
S        0.00000135       9.18449823       1.16761307      -0.00000129       0.00006094       0.00136063
S        1.82121074       7.35695212       3.87343135       0.00128889      -0.00206537       0.00274542
Fe      -0.00000089       7.35280319       5.04700308      -0.00001363      -0.00190313       0.00287295
Fe       1.82717124       9.19263420       5.04218473       0.00133492       0.00272588      -0.00265261
S       -0.00001717       9.18666876       6.21229823       0.00004628       0.00117731      -0.00556824
S        1.83787714       7.34842374       8.91701820      -0.00017818      -0.00002982       0.00094488
Fe       3.67483763      -0.00077045       0.01026936      -0.00016044      -0.00009770       0.00087418
Fe       5.51100169       1.83647216       0.00695121      -0.00000154      -0.00033810       0.00051782
S        3.67587339       1.83745889       1.16797368       0.00012316      -0.00043426       0.00102227
S        5.51100846      -0.00227985       3.88606421      -0.00001671      -0.00278862      -0.00096082
Fe       3.67800686      -0.00250883       5.02761983      -0.00231939       0.00013113      -0.00654731
Fe       5.51103936       1.87819906       5.01794234      -0.00005682       0.00339771      -0.00652983
S        3.67564308       1.82685964       6.19008483       0.00164782      -0.00008408       0.00054199
S        5.51100034      -0.00078939       8.91550746      -0.00000000      -0.00006865       0.00048594
Fe       3.67528109       3.67352335       0.00856379       0.00003008      -0.00017226       0.00117397
Fe       5.51100048       5.51023377       0.00605377      -0.00000077      -0.00013550       0.00068931
S        3.67505165       5.51022516       1.16678625       0.00006299      -0.00011776       0.00127347
S        5.51105782       3.84026276       4.00307132      -0.00009899       0.02329779      -0.00128324
Fe       3.62455576       3.69124835       5.07543646      -0.00115905      -0.00338614       0.00225691
S        3.58768237       5.50795580       6.18341056       0.01197954       0.00174449      -0.00028462
S        5.51100158       3.67386681       8.91378886      -0.00000283      -0.00017612       0.00068263
Fe       3.67528273       7.34696575       0.00864035      -0.00002057      -0.00014630       0.00116368
Fe       5.51099879       9.18400271       0.00704352       0.00000283       0.00012727       0.00045406
S        3.67586101       9.18303560       1.16804953       0.00008536       0.00015041       0.00103564
S        5.51094327       7.17646830       4.00431653       0.00010542      -0.01239914       0.00078367
Fe       3.62507736       7.32544366       5.07629169      -0.00421738       0.00572096       0.00308070
Fe       5.51096912       9.13896268       5.01833791       0.00006119      -0.00820850      -0.00988075
S        3.67565137       9.19039372       6.19093968       0.00265518      -0.00020003      -0.00366305
S        5.51099924       7.34662628       8.91387735       0.00000051      -0.00011647       0.00052913
Fe       7.34716279      -0.00077173       0.01026970       0.00016249      -0.00009899       0.00087649
Fe       9.18434263       1.83605787       0.00995567       0.00006068      -0.00029439       0.00087675
S        7.34613030       1.83745847       1.16797333      -0.00012650      -0.00043246       0.00101893
S        9.19268175      -0.00255537       3.87521034       0.00322056      -0.00042577      -0.00637017
Fe       7.34400600      -0.00253945       5.02762474       0.00230345       0.00014655      -0.00655708
Fe       9.19496100       1.82459333       5.04149384      -0.00080733      -0.00283953      -0.00221192
S        7.34642329       1.82680756       6.19012089      -0.00179694      -0.00001388       0.00049597
S        9.18410521      -0.00078444       8.91780377       0.00007251      -0.00012624       0.00037307
Fe       7.34672156       3.67352369       0.00856382      -0.00003214      -0.00017098       0.00117165
Fe       9.18422831       5.51024947       0.00777080       0.00017638      -0.00015427       0.00092663
S        7.34694929       5.51022589       1.16678644      -0.00006402      -0.00012316       0.00127270
S        9.20091551       3.66030044       3.87256047      -0.00018949       0.00193424       0.00328330
Fe       7.39750270       3.69122235       5.07550581       0.00107986      -0.00334629       0.00212373
Fe       9.19960360       5.50838343       5.04694582      -0.00614082       0.00102536       0.01138947
S        7.43432471       5.50796729       6.18341664      -0.01199702       0.00172984      -0.00032190
S        9.18414281       3.67208134       8.91697034       0.00013653      -0.00026045       0.00103873
Fe       7.34671585       7.34696592       0.00864023       0.00002468      -0.00014604       0.00116934
Fe       9.18434380       9.18442054       0.01003270       0.00002571       0.00001594       0.00077802
S        7.34613627       9.18303479       1.16805062      -0.00008125       0.00015170       0.00103435
S        9.20078495       7.35693099       3.87340871      -0.00128015      -0.00205791       0.00280430
Fe       7.39687020       7.32541090       5.07622192       0.00430660       0.00575516       0.00323265
Fe       9.19480339       9.19260071       5.04217336      -0.00124596       0.00278502      -0.00265312
S        7.34629937       9.19033670       6.19090519      -0.00250734      -0.00014347      -0.00361677
S        9.18412204       7.34842518       8.91701912       0.00018075      -0.00003214       0.00094719
H        5.51096954       5.50567975       3.93470626       0.00006556      -0.00410399      -0.01408322
72
Lattice="11.022 0.0 0.0 0.0 11.022 0.0 0.0 0.0 10.066" Properties=species:S:1:pos:R:3:forces:R:3 spacegroup="P 4/n m m" unit_cell=conventional mineral=mackinawite rc=0.625 image_index=5 U_eV=0.0 nspin=1 source_file=results/dft_datasets/2026-05-03/mack_vfe_w3_aborted_2026-05-03/neb_canonical_mack_72at_qe_VFe/neb.traj method=PBE_U0_ONCV vacancy_type=V_Fe_SH reaction=S_H_transfer energy=-130159.57011685437 pbc="T T T"
Fe       0.00006112      -0.00069269       0.00933596       0.00006299      -0.00004525       0.00073636
Fe       1.83771578       1.83619222       0.00999632       0.00011904      -0.00007610       0.00106392
S        0.00006761       1.83611703       1.16751465       0.00003085      -0.00003240       0.00118734
S        1.82955051      -0.00232985       3.87525656      -0.00239215       0.00048748      -0.00645218
Fe       0.00078497      -0.00301861       5.04785370      -0.00023037       0.00121253      -0.00342008
Fe       1.82611755       1.82601098       5.03951641       0.00003600      -0.00222889      -0.00271097
S        0.00097556       1.83214590       6.21113155      -0.00051396      -0.00014424      -0.00595827
S        1.83776113      -0.00056354       8.91760322       0.00001080       0.00009230       0.00039209
Fe       0.00006016       3.67272725       0.00815351       0.00005219       0.00008202       0.00136577
Fe       1.83782670       5.51036378       0.00761577      -0.00021417       0.00009770       0.00083509
S        0.00004204       5.51036075       1.16568504       0.00006273       0.00010567       0.00171570
S        1.82056081       3.66255982       3.87031834      -0.00112254       0.00241067       0.00138223
Fe       0.00077226       3.66758731       5.04679829       0.00075745       0.00351136       0.00114980
Fe       1.82540117       5.51250408       5.04549407       0.00451100       0.00354452       0.00911610
S        0.00116846       5.51191774       6.21113150      -0.00052348       0.00334063       0.00095465
S        1.83798573       3.67223355       8.91683213      -0.00014784      -0.00009256       0.00095851
Fe       0.00006067       7.34792240       0.00807863       0.00004679       0.00001851       0.00134417
Fe       1.83751381       9.18446570       0.00946992      -0.00002417       0.00005888       0.00036355
S        0.00007513       9.18445326       1.16734116       0.00000643      -0.00001903       0.00095774
S        1.82253311       7.36010321       3.87268719      -0.00038284       0.00135369       0.00305087
Fe       0.00074053       7.35429746       5.04520241       0.00080218       0.00087418      -0.00060241
Fe       1.82806528       9.19345655       5.04337440       0.00041626       0.00360340      -0.00073405
S        0.00081794       9.18636130       6.21345677      -0.00008793       0.00279170      -0.00449866
S        1.83787001       7.34832576       8.91656641      -0.00015195       0.00002880       0.00061012
Fe       3.67475787      -0.00060283       0.00996225      -0.00002803       0.00008562       0.00059290
Fe       5.51105234       1.83653761       0.00645883       0.00008562      -0.00029748       0.00017535
S        3.67614603       1.83754231       1.16758400       0.00056204      -0.00026534       0.00083998
S        5.51195435       0.00401098       3.88720115      -0.00041395       0.01049781       0.00053556
Fe       3.67764650      -0.00191244       5.02883681      -0.00470615      -0.00051268      -0.00087315
Fe       5.51194312       1.86829846       5.03102305      -0.00016121       0.00233842       0.00211293
S        3.67464892       1.82950923       6.18857852       0.00093588      -0.00017072      -0.00371859
S        5.51103946      -0.00078982       8.91545950       0.00011930      -0.00019129       0.00041755
Fe       3.67540237       3.67369130       0.00832924       0.00012290       0.00004834       0.00095671
Fe       5.51108292       5.51048568       0.00577207      -0.00001620       0.00005476       0.00054919
S        3.67516058       5.51053264       1.16654563       0.00005708       0.00024528       0.00101224
S        5.51225771       3.84441628       3.97425834      -0.00078367       0.03105070      -0.01262797
Fe       3.61866771       3.69280280       5.07314681      -0.00999876       0.00307118       0.00572610
S        3.59490844       5.51203786       6.17569731       0.01500084       0.00203426      -0.00164242
S        5.51106993       3.67406574       8.91349464       0.00000668       0.00005502       0.00044686
Fe       3.67523057       7.34710952       0.00828871       0.00013447       0.00007688       0.00080990
Fe       5.51104330       9.18405471       0.00741501       0.00009539       0.00015967       0.00092817
S        3.67535481       9.18320573       1.16776717      -0.00020980       0.00034144       0.00085875
S        5.51197197       7.23823401       4.00046165      -0.00019258       0.05506506       0.00298222
Fe       3.63555460       7.33585029       5.06966691       0.00802441       0.00852809      -0.00146244
Fe       5.51168191       9.14626863       5.01994234       0.00078316       0.01060194      -0.00122333
S        3.67292618       9.19423797       6.19666097      -0.00212784       0.00406209       0.00791514
S        5.51106112       7.34691569       8.91372544       0.00002468       0.00012187       0.00052373
Fe       7.34732267      -0.00060966       0.00998535       0.00021340       0.00008536       0.00063686
Fe       9.18439991       1.83618142       0.01003615      -0.00001697      -0.00010182       0.00102124
S        7.34595283       1.83754203       1.16760320      -0.00038978      -0.00026894       0.00089397
S        9.19389082      -0.00244108       3.87547329       0.00235179       0.00084306      -0.00546874
Fe       7.34597110      -0.00203490       5.02925988       0.00407597      -0.00021109      -0.00179900
Fe       9.19746402       1.82582454       5.04002394      -0.00039209      -0.00149381      -0.00293080
S        7.34892900       1.82913786       6.18919272      -0.00107961       0.00109349      -0.00396053
S        9.18433566      -0.00057713       8.91765116       0.00014115       0.00010747       0.00033861
Fe       7.34672984       3.67368691       0.00834056      -0.00003882      -0.00001491       0.00098885
Fe       9.18429703       5.51036622       0.00756307       0.00032859       0.00008922       0.00098730
S        7.34700762       5.51053351       1.16655142       0.00001646       0.00023860       0.00095619
S        9.20265178       3.66261731       3.87113734       0.00125418       0.00259399       0.00065255
Fe       7.40500727       3.69295274       5.07446731       0.00957967       0.00083149       0.00335786
Fe       9.19833951       5.51250580       5.04647548      -0.00665581       0.00348719       0.00840031
S        7.42875130       5.51207622       6.17691222      -0.01426731       0.00176892      -0.00232736
S        9.18414467       3.67219483       8.91683650       0.00026225      -0.00005296       0.00099605
Fe       7.34688807       7.34711305       0.00829744      -0.00002263       0.00014655       0.00085901
Fe       9.18459683       9.18446674       0.00953187       0.00014270       0.00009744       0.00030159
S        7.34672289       9.18319805       1.16779205       0.00041600       0.00034556       0.00090554
S        9.20072999       7.35982836       3.87323771       0.00006993       0.00171904       0.00336660
Fe       7.38797840       7.33549244       5.07057154      -0.00894024       0.01132622      -0.00348513
Fe       9.19533265       9.19339019       5.04376174      -0.00044043       0.00321619      -0.00086723
S        7.35025751       9.19424900       6.19703558       0.00352344       0.00312955       0.00792954
S        9.18425322       7.34836983       8.91657439       0.00027485      -0.00002005       0.00066617
H        5.51146824       5.35345338       3.92503624       0.00115468      -0.17693175      -0.02106299
72
Lattice="11.022 0.0 0.0 0.0 11.022 0.0 0.0 0.0 10.066" Properties=species:S:1:pos:R:3:forces:R:3 spacegroup="P 4/n m m" unit_cell=conventional mineral=mackinawite rc=0.75 image_index=6 U_eV=0.0 nspin=1 source_file=results/dft_datasets/2026-05-03/mack_vfe_w3_aborted_2026-05-03/neb_canonical_mack_72at_qe_VFe/neb.traj method=PBE_U0_ONCV vacancy_type=V_Fe_SH reaction=S_H_transfer energy=-130159.58250497293 pbc="T T T"
Fe       0.00007255      -0.00079563       0.00941816       0.00014552       0.00009307       0.00056307
Fe       1.83766551       1.83613990       0.00996703       0.00005322      -0.00006196       0.00067440
S        0.00007520       1.83609911       1.16754739       0.00010233       0.00004268       0.00067749
S        1.82956708      -0.00275551       3.87603165      -0.00099862       0.00128349      -0.00623004
Fe       0.00097088      -0.00386389       5.04855681       0.00138377       0.00222118      -0.00266006
Fe       1.82554662       1.82682998       5.03857756      -0.00224714      -0.00140357      -0.00336455
S        0.00129661       1.83285152       6.21072957       0.00070088       0.00118425      -0.00486221
S        1.83755676      -0.00059505       8.91746413      -0.00000489       0.00011981       0.00039286
Fe       0.00007579       3.67266839       0.00799360       0.00012598       0.00010413       0.00102176
Fe       1.83779462       5.51028336       0.00753654      -0.00004551       0.00013961       0.00078007
S        0.00003839       5.51029234       1.16558624       0.00018769       0.00024965       0.00128015
S        1.81994346       3.66344697       3.86843924      -0.00109426       0.00179077       0.00068160
Fe       0.00125163       3.66917776       5.04650864       0.00053273       0.00457708       0.00090760
Fe       1.82906122       5.51385117       5.04479728       0.00315989       0.00236876       0.00587960
S        0.00207445       5.51317780       6.20987762      -0.00058467       0.00369339      -0.00068237
S        1.83802827       3.67221775       8.91668867      -0.00010182       0.00011621       0.00078264
Fe       0.00007991       7.34776576       0.00782790       0.00009976       0.00007430       0.00093948
Fe       1.83737667       9.18431027       0.00916553      -0.00000771       0.00019875       0.00026765
S        0.00008897       9.18420880       1.16723328       0.00009822      -0.00005502       0.00058750
S        1.82331191       7.36120027       3.87180880       0.00134520       0.00379546       0.00279402
Fe       0.00114811       7.35411987       5.04378106       0.00086749       0.00163856      -0.00076207
Fe       1.82854951       9.19296101       5.04427626      -0.00052708       0.00407983      -0.00082867
S        0.00110437       9.18518525       6.21406212       0.00087546       0.00413845      -0.00366099
S        1.83783893       7.34808429       8.91624618       0.00000489      -0.00002905       0.00053428
Fe       3.67462501      -0.00070537       0.00967027      -0.00000154       0.00005014       0.00033604
Fe       5.51105999       1.83636358       0.00624099       0.00015375      -0.00011904       0.00021829
S        3.67615053       1.83731812       1.16728944       0.00030390      -0.00013601       0.00042475
S        5.51213157       0.00675808       3.88845407       0.00074331       0.00996585       0.00098807
Fe       3.67684496      -0.00160858       5.03112198      -0.00445084       0.00193013      -0.00062683
Fe       5.51284165       1.86093257       5.03948897      -0.00106752       0.00145216       0.00750814
S        3.67319285       1.83129541       6.18881285      -0.00495092      -0.00396284       0.00244898
S        5.51102946      -0.00098356       8.91542150       0.00017869      -0.00024220       0.00044840
Fe       3.67542622       3.67361926       0.00817547       0.00017201       0.00017535       0.00064278
Fe       5.51110286       5.51049478       0.00562113       0.00008228       0.00007662       0.00039672
S        3.67516214       5.51057214       1.16637291       0.00010747       0.00018486       0.00065615
S        5.51422425       3.81918605       3.95083330      -0.00107086      -0.01503453      -0.01337719
Fe       3.61835539       3.69128179       5.06788625      -0.00565128      -0.00204197       0.00323445
S        3.60512810       5.51358630       6.16630648       0.00835840      -0.00164191      -0.00122693
S        5.51108248       3.67399361       8.91337508       0.00010722       0.00022111       0.00023526
Fe       3.67516392       7.34707317       0.00804662       0.00024066       0.00004371       0.00061218
Fe       5.51104410       9.18395189       0.00768680       0.00012778       0.00009282       0.00074588
S        3.67500267       9.18320919       1.16757965      -0.00005631       0.00021237       0.00051499
S        5.51335377       7.26971501       3.98958269      -0.00054610       0.03250414       0.00084769
Fe       3.64250261       7.34131273       5.06325838       0.00856897       0.00731659      -0.00232531
Fe       5.51229234       9.15414814       5.02341645       0.00048028       0.00698157       0.00103358
S        3.67173286       9.19494133       6.19966913      -0.00220832       0.00659179       0.00814346
S        5.51106225       7.34697968       8.91365823       0.00013010       0.00009616       0.00047103
Fe       7.34745300      -0.00072488       0.00969833       0.00029542       0.00005425       0.00037204
Fe       9.18447119       1.83610044       0.01000653       0.00016147      -0.00001003       0.00074896
S        7.34597114       1.83729499       1.16730710      -0.00008793      -0.00012573       0.00054944
S        9.19427119      -0.00301574       3.87599259       0.00299225       0.00170953      -0.00441073
Fe       7.34726957      -0.00195181       5.03115261       0.00542220       0.00253331       0.00096828
Fe       9.19881381       1.82615791       5.03927736       0.00259733       0.00037615      -0.00334501
S        7.35166872       1.82966503       6.19041499       0.00358180      -0.00128195       0.00079421
S        9.18455772      -0.00062240       8.91752303       0.00025171       0.00015967       0.00035944
Fe       7.34674477       3.67358967       0.00819743       0.00002263       0.00016404       0.00064458
Fe       9.18438951       5.51029156       0.00742116       0.00019540       0.00011750       0.00090786
S        7.34710302       5.51058153       1.16632067      -0.00005219       0.00016892       0.00077442
S        9.20390499       3.66340205       3.86992266       0.00260941       0.00269246      -0.00112434
Fe       7.40779918       3.69079832       5.07185892       0.00492186      -0.00093177      -0.00085926
Fe       9.19629186       5.51393693       5.04618062      -0.00499231       0.00214044       0.00577341
S        7.42186361       5.51377748       6.17004772      -0.01328592      -0.00158997      -0.00452720
S        9.18415330       3.67213878       8.91670945       0.00027074       0.00014578       0.00072582
Fe       7.34698211       7.34710649       0.00805282      -0.00000180       0.00004242       0.00064355
Fe       9.18475722       9.18433643       0.00924902       0.00018666       0.00007739       0.00032190
S        7.34707843       9.18320330       1.16760783       0.00032267       0.00024683       0.00063352
S        9.20034116       7.36113875       3.87291503       0.00030416       0.00250194       0.00224766
Fe       7.38255088       7.34139433       5.06598362      -0.00847590       0.00654294      -0.00472363
Fe       9.19539278       9.19314683       5.04494724       0.00169307       0.00316811      -0.00078367
S        7.35226562       9.19567473       6.20081844       0.00324345       0.00506739       0.00752459
S        9.18433480       7.34817750       8.91627226       0.00017921      -0.00007148       0.00050496
H        5.51855098       5.28563723       3.90121885      -0.00617785      -0.09897487      -0.01278455
72
Lattice="11.022 0.0 0.0 0.0 11.022 0.0 0.0 0.0 10.066" Properties=species:S:1:pos:R:3:forces:R:3 spacegroup="P 4/n m m" unit_cell=conventional mineral=mackinawite rc=0.875 image_index=7 U_eV=0.0 nspin=1 source_file=results/dft_datasets/2026-05-03/mack_vfe_w3_aborted_2026-05-03/neb_canonical_mack_72at_qe_VFe/neb.traj method=PBE_U0_ONCV vacancy_type=V_Fe_SH reaction=S_H_transfer energy=-130159.58740206962 pbc="T T T"
Fe       0.00002523      -0.00141186       0.00958678       0.00005605      -0.00004885       0.00049802
Fe       1.83752775       1.83555690       0.00994566       0.00004397      -0.00009230       0.00046794
S        0.00001918       1.83558842       1.16759667       0.00007790      -0.00011236       0.00059007
S        1.82891457      -0.00510197       3.87680444      -0.00063146       0.00158637      -0.00390499
Fe       0.00038213      -0.00623968       5.04928797       0.00070371       0.00210213      -0.00189079
Fe       1.82379672       1.82512818       5.03844466      -0.00150204       0.00016198      -0.00283361
S        0.00041191       1.83175122       6.21065785       0.00082507       0.00181777      -0.00349824
S        1.83730771      -0.00120547       8.91746093      -0.00010104      -0.00000103       0.00028128
Fe       0.00002806       3.67215350       0.00794993       0.00005322       0.00001080       0.00083767
Fe       1.83770233       5.50972563       0.00756553       0.00001723      -0.00001800       0.00067440
S        0.00001388       5.50975218       1.16564524       0.00005862       0.00013833       0.00093794
S        1.81899704       3.66168364       3.86772038      -0.00118734       0.00141642      -0.00106187
Fe       0.00052196       3.66846899       5.04593229       0.00037641       0.00389625       0.00057541
Fe       1.83075968       5.51231612       5.04480557       0.00235436       0.00135986       0.00256519
S        0.00087473       5.51194296       6.20852755       0.00056616       0.00268655      -0.00045611
S        1.83795637       3.67172559       8.91665587      -0.00009127       0.00000103       0.00058030
Fe       0.00002965       7.34712961       0.00772796       0.00005065      -0.00004962       0.00066514
Fe       1.83723286       9.18367540       0.00911014      -0.00006016      -0.00001980       0.00025634
S        0.00002590       9.18348212       1.16726991       0.00008279      -0.00011724       0.00050574
S        1.82364027       7.36017964       3.87215576       0.00171647       0.00258524       0.00179592
Fe       0.00044713       7.35196860       5.04278056       0.00057618       0.00165836      -0.00013575
Fe       1.82807270       9.19083304       5.04564772      -0.00023577       0.00270454      -0.00114517
S        0.00038487       9.18254667       6.21466157       0.00078316       0.00369622      -0.00267369
S        1.83777713       7.34740977       8.91614270       0.00000026      -0.00012650       0.00044120
Fe       3.67446735      -0.00135771       0.00948189      -0.00006891      -0.00008716       0.00024863
Fe       5.51102408       1.83568830       0.00616070       0.00006325      -0.00011827       0.00023114
S        3.67602630       1.83656014       1.16707809       0.00010824      -0.00019875       0.00035867
S        5.51127123       0.00661997       3.89157095       0.00106881       0.00779147      -0.00009436
Fe       3.67476360      -0.00322165       5.03420110      -0.00259064       0.00184142      -0.00076979
Fe       5.51183348       1.85322819       5.04848461      -0.00009616       0.00264001       0.00444467
S        3.66938862       1.82957007       6.19176764      -0.00300099      -0.00246749       0.00118862
S        5.51100885      -0.00170416       8.91549556       0.00005836      -0.00029593       0.00034581
Fe       3.67536323       3.67302281       0.00812270       0.00008202       0.00002160       0.00048028
Fe       5.51102631       5.50995733       0.00565805       0.00008022      -0.00010053       0.00034864
S        3.67503933       5.51004399       1.16635319       0.00013730       0.00000489       0.00055227
S        5.51316678       3.79223240       3.93337094      -0.00132438      -0.01898811      -0.00759761
Fe       3.61803799       3.68635621       5.06492791      -0.00433951      -0.00152749       0.00052528
S        3.61159991       5.51139980       6.15989652       0.00563252      -0.00231039      -0.00173190
S        5.51102983       3.67343707       8.91338642       0.00007328       0.00006942       0.00023680
Fe       3.67507634       7.34653128       0.00803039       0.00013601      -0.00011776       0.00045791
Fe       5.51101140       9.18334302       0.00800441       0.00006813      -0.00010259       0.00051062
S        3.67473564       9.18271098       1.16757558      -0.00003934       0.00003831       0.00047540
S        5.51259772       7.28584226       3.98154979      -0.00057696       0.01637793       0.00331184
Fe       3.64649547       7.34268147       5.06031222       0.00563149       0.00392659      -0.00207668
Fe       5.51162269       9.15708707       5.02696024       0.00028719       0.00169281      -0.00148893
S        3.67006586       9.19349835       6.20289019      -0.00099939       0.00396207       0.00433642
S        5.51101660       7.34647524       8.91377857       0.00007559      -0.00005451       0.00033630
Fe       7.34756330      -0.00137458       0.00949147       0.00017175      -0.00008048       0.00027716
Fe       9.18451545       1.83553073       0.00994824       0.00007302      -0.00007919       0.00052348
S        7.34602136       1.83652817       1.16708807      -0.00000797      -0.00016712       0.00038181
S        9.19374511      -0.00525395       3.87675500       0.00187485       0.00168433      -0.00337097
Fe       7.34785988      -0.00345858       5.03395899       0.00412276       0.00214533       0.00035173
Fe       9.19912916       1.82478743       5.03864452       0.00252559       0.00062555      -0.00253331
S        7.35381323       1.82842656       6.19261540       0.00327996      -0.00124673       0.00064380
S        9.18473792      -0.00122519       8.91747435       0.00020106       0.00001157       0.00033347
Fe       7.34670130       3.67299463       0.00814407       0.00004937       0.00005785       0.00048028
Fe       9.18438055       5.50972940       0.00750227       0.00006376      -0.00002185       0.00069111
S        7.34706976       5.51005432       1.16629539      -0.00003214      -0.00000591       0.00062581
S        9.20396585       3.66172777       3.86817334       0.00187228       0.00173112      -0.00086518
Fe       7.40705432       3.68584744       5.06766641       0.00306861      -0.00057876      -0.00135754
Fe       9.19284117       5.51240190       5.04528404      -0.00200880       0.00121510       0.00362140
S        7.41358273       5.51163497       6.16257114      -0.00736210      -0.00241144      -0.00318457
S        9.18411492       3.67168197       8.91667124       0.00019258       0.00000283       0.00057130
Fe       7.34697546       7.34656426       0.00803724      -0.00001337      -0.00016069       0.00046923
Fe       9.18480679       9.18368767       0.00914321       0.00016789      -0.00003934       0.00030622
S        7.34728329       9.18271662       1.16759368       0.00014295       0.00002237       0.00048671
S        9.19899979       7.36024790       3.87257063      -0.00052425       0.00200109       0.00215818
Fe       7.37739932       7.34297662       5.06221223      -0.00570348       0.00322005      -0.00325065
Fe       9.19462694       9.19096777       5.04597674       0.00143905       0.00244512      -0.00094282
S        7.35278222       9.19416543       6.20365552       0.00173807       0.00329153       0.00400321
S        9.18429133       7.34745834       8.91616065       0.00010490      -0.00013344       0.00043966
H        5.52147546       5.24075746       3.87485734      -0.01043636      -0.05076232       0.00043914
72
Lattice="11.022 0.0 0.0 0.0 11.022 0.0 0.0 0.0 10.066" Properties=species:S:1:pos:R:3:forces:R:3 spacegroup="P 4/n m m" unit_cell=conventional mineral=mackinawite rc=1.0 image_index=8 U_eV=0.0 nspin=1 source_file=results/dft_datasets/2026-05-03/mack_vfe_w3_aborted_2026-05-03/neb_canonical_mack_72at_qe_VFe/neb.traj method=PBE_U0_ONCV vacancy_type=V_Fe_SH reaction=S_H_transfer energy=-130159.5889746155 pbc="T T T"
Fe       0.00000000      -0.00281609       0.00914316       0.00000000      -0.00076542       0.00011493
Fe       1.83745708       1.83433608       0.00886701      -0.00072017      -0.00169796       0.00150872
S        0.00000000       1.83441661       1.16658400       0.00000000      -0.00144290       0.00306707
S        1.82838238      -0.01410190       3.88023699       0.00271226       0.00747548       0.00715641
Fe       0.00000000      -0.01465462       5.05350610       0.00000000       0.00085618      -0.00886156
Fe       1.82163361       1.81870311       5.03927371      -0.00371936      -0.01271411      -0.00612642
S       -0.00000000       1.82654023       6.21170783       0.00000000       0.00725077      -0.00483547
S        1.83708836      -0.00266256       8.91686656      -0.00094668      -0.00072428      -0.00090940
Fe      -0.00000000       3.67080988       0.00691721       0.00000000      -0.00055639       0.00007945
Fe       1.83728619       5.50822231       0.00646738       0.00181957       0.00020749       0.00301128
S        0.00000000       5.50802950       1.16501407       0.00000000       0.00054533       0.00073714
S        1.81818969       3.65436404       3.86603273      -0.00722326      -0.00189156      -0.00836663
Fe      -0.00000000       3.66291781       5.04373373       0.00000000       0.00142593       0.01051581
Fe       1.83185028       5.50511976       5.04316581       0.01805223       0.00439247       0.00331004
S        0.00000000       5.50653969       6.20540126       0.00000000      -0.01043996       0.00652083
S        1.83774763       3.67043235       8.91548988       0.00092817      -0.00049365       0.00091737
Fe      -0.00000000       7.34542067       0.00725796       0.00000000       0.00099527      -0.00067723
Fe       1.83702157       9.18221271       0.00838512      -0.00031110       0.00002340       0.00137708
S        0.00000000       9.18184201       1.16662780       0.00000000       0.00065460       0.00262870
S        1.82617321       7.35565488       3.87285459      -0.00877980      -0.00778993       0.00472929
Fe       0.00000000       7.34492184       5.04097109       0.00000000       0.00752485      -0.00581866
Fe       1.82882696       9.18284083       5.05051940      -0.00199003      -0.00181520      -0.00497123
S        0.00000000       9.17333566       6.21770877       0.00000000       0.00046460      -0.00437910
S        1.83752406       7.34593333       8.91544583       0.00043092      -0.00001800      -0.00001234
Fe       3.67435266      -0.00281708       0.00860479      -0.00090940      -0.00038695       0.00061038
Fe       5.51100000       1.83411636       0.00529303       0.00000000       0.00063686       0.00081118
S        3.67582118       1.83496308       1.16597630      -0.00040006      -0.00006171       0.00133723
S        5.51100000       0.00196394       3.89998979       0.00000000      -0.00632209      -0.00494500
Fe       3.67221743      -0.01110241       5.04209182       0.00625909       0.00393610      -0.00906854
Fe       5.51100000       1.84035612       5.06306471       0.00000000      -0.02064004       0.01446631
S        3.66361937       1.82281438       6.19748809      -0.00348642      -0.00701757       0.01208804
S        5.51100000      -0.00331826       8.91489941       0.00000000      -0.00064072       0.00150101
Fe       3.67511518       3.67162615       0.00719943       0.00047977      -0.00017304       0.00046640
Fe       5.51100000       5.50896005       0.00529499       0.00000000      -0.00186225       0.00096494
S        3.67449891       5.50873216       1.16536073       0.00153161      -0.00098293       0.00319948
S        5.51100000       3.74408027       3.91442067       0.00000000       0.01098607      -0.02296792
Fe       3.61506447       3.67320403       5.06298948       0.00035687       0.01371246       0.00419501
S        3.61656452       5.50299910       6.15488573      -0.00476837      -0.02555574      -0.00263024
S        5.51100000       3.67230624       8.91301690       0.00000000      -0.00018512      -0.00167405
Fe       3.67464103       7.34556053       0.00767443       0.00166299      -0.00235230       0.00041061
Fe       5.51100000       9.18234276       0.00834823       0.00000000      -0.00202243       0.00059213
S        3.67417853       9.18175647       1.16722039       0.00054430      -0.00102793       0.00156683
S        5.51100000       7.29510225       3.97593570       0.00000000      -0.00544714      -0.01642601
Fe       3.65182803       7.33630289       5.05920513      -0.01238835       0.02298720      -0.00176583
Fe       5.51100000       9.15271415       5.03268185       0.00000000       0.00733099      -0.00092791
S        3.66975893       9.18379980       6.20926557      -0.00586340       0.01097475       0.00057207
S        5.51100000       7.34578063       8.91407306       0.00000000      -0.00283490      -0.00168973
Fe       7.34764734      -0.00281708       0.00860479       0.00090940      -0.00038695       0.00061038
Fe       9.18454292       1.83433608       0.00886701       0.00072017      -0.00169796       0.00150872
S        7.34617882       1.83496308       1.16597630       0.00040006      -0.00006171       0.00133723
S        9.19361762      -0.01410190       3.88023699      -0.00271226       0.00747548       0.00715641
Fe       7.34978257      -0.01110241       5.04209182      -0.00625909       0.00393610      -0.00906854
Fe       9.20036639       1.81870311       5.03927371       0.00371936      -0.01271411      -0.00612642
S        7.35838063       1.82281438       6.19748809       0.00348642      -0.00701757       0.01208804
S        9.18491164      -0.00266256       8.91686656       0.00094668      -0.00072428      -0.00090940
Fe       7.34688482       3.67162615       0.00719943      -0.00047977      -0.00017304       0.00046640
Fe       9.18471381       5.50822231       0.00646738      -0.00181957       0.00020749       0.00301128
S        7.34750109       5.50873216       1.16536073      -0.00153161      -0.00098293       0.00319948
S        9.20381031       3.65436404       3.86603273       0.00722326      -0.00189156      -0.00836663
Fe       7.40693553       3.67320403       5.06298948      -0.00035687       0.01371246       0.00419501
Fe       9.19014972       5.50511976       5.04316581      -0.01805223       0.00439247       0.00331004
S        7.40543548       5.50299910       6.15488573       0.00476837      -0.02555574      -0.00263024
S        9.18425237       3.67043235       8.91548988      -0.00092817      -0.00049365       0.00091737
Fe       7.34735897       7.34556053       0.00767443      -0.00166299      -0.00235230       0.00041061
Fe       9.18497843       9.18221271       0.00838512       0.00031110       0.00002340       0.00137708
S        7.34782147       9.18175647       1.16722039      -0.00054430      -0.00102793       0.00156683
S        9.19582679       7.35565488       3.87285459       0.00877980      -0.00778993       0.00472929
Fe       7.37017197       7.33630289       5.05920513       0.01238835       0.02298720      -0.00176583
Fe       9.19317304       9.18284083       5.05051940       0.00199003      -0.00181520      -0.00497123
S        7.35224107       9.18379980       6.20926557       0.00586340       0.01097475       0.00057207
S        9.18447594       7.34593333       8.91544583      -0.00043092      -0.00001800      -0.00001234
H        5.51100000       5.17510863       3.85834018       0.00000000       0.01647434       0.00599298
