72
Lattice="11.022 0.0 0.0 0.0 11.022 0.0 0.0 0.0 10.066" Properties=species:S:1:pos:R:3:spacegroup_kinds:I:1:forces:R:3 spacegroup="P 4/n m m" unit_cell=conventional nspins=1 nkpts=8 fermi_level=9.4096 natoms=72 mineral=mackinawite rc=0.0 image_index=0 U_eV=0.0 nspin=1 source_file=results/dft_datasets/2026-05-03/mack_vfe_w3_aborted_2026-05-03/neb_canonical_mack_72at_qe_VFe/relaxed_endA.xyz method=PBE_U0_ONCV geometry=dft_relaxed vacancy_type=V_Fe_SH energy=-130159.58896658814 pbc="T T T"
Fe       0.00000000       0.00281442       0.00914587        0       0.00000000       0.00076182       0.00007816
Fe       1.83701823       1.83978590       0.00838302        0      -0.00029233      -0.00003060       0.00138248
S        0.00000000       1.84015630       1.16662578        1       0.00000000      -0.00063763       0.00267652
S        1.82841731       0.01411913       3.88027088        1       0.00252225      -0.00747625       0.00708905
Fe      -0.00000000       0.01469118       5.05351721        0       0.00000000      -0.00098987      -0.00881348
Fe       1.82884167       1.83918249       5.05052352        0      -0.00196689       0.00183860      -0.00475346
S       -0.00000000       1.84873029       6.21772149        1       0.00000000      -0.00087238      -0.00455317
S        1.83708467       0.00266116       8.91686494        1      -0.00093562       0.00072582      -0.00092174
Fe      -0.00000000       3.67658026       0.00725853        0       0.00000000      -0.00101790      -0.00068417
Fe       1.83728478       5.51377860       0.00646416        0       0.00184014      -0.00022060       0.00299508
S        0.00000000       5.51397350       1.16500565        1       0.00000000      -0.00055973       0.00082198
S        1.82617346       3.66635934       3.87284574        1      -0.00867387       0.00761432       0.00465164
Fe      -0.00000000       3.67709715       5.04095800        0       0.00000000      -0.00748731      -0.00585954
Fe       1.83182746       5.51688115       5.04313183        0       0.01813476      -0.00439222       0.00352293
S        0.00000000       5.51546984       6.20540282        1       0.00000000       0.01065491       0.00619816
S        1.83752199       3.67606504       8.91544666        1       0.00042835       0.00003034      -0.00004217
Fe      -0.00000000       7.35118911       0.00691246        0       0.00000000       0.00058030       0.00006608
Fe       1.83745460       9.18766080       0.00886086        0      -0.00068803       0.00171621       0.00153983
S        0.00000000       9.18758102       1.16657980        1       0.00000000       0.00143133       0.00310332
S        1.81820207       7.36762864       3.86601854        1      -0.00693092       0.00207848      -0.00832292
Fe       0.00000000       7.35909265       5.04365875        0       0.00000000      -0.00152106       0.01114650
Fe       1.82164932       9.20329923       5.03927635        0      -0.00375947       0.01264391      -0.00616139
S        0.00000000       9.19546282       6.21169605        1       0.00000000      -0.00729705      -0.00505170
S        1.83774707       7.35156700       8.91548568        1       0.00093974       0.00048234       0.00090117
Fe       3.67434901       0.00281514       0.00860391        0      -0.00088626       0.00039209       0.00058313
Fe       5.51100000       1.83965649       0.00834652        0       0.00000000       0.00200058       0.00061501
S        3.67417598       1.84024112       1.16721659        1       0.00055022       0.00103050       0.00159563
S        5.51100000      -0.00197378       3.90003218        1       0.00000000       0.00635500      -0.00511830
Fe       3.67223723       0.01110857       5.04214367        0       0.00617168      -0.00385923      -0.00914978
Fe       5.51100000       1.86927891       5.03271465        0       0.00000000      -0.00740529      -0.00082815
S        3.66977872       1.83822567       6.20930593        1      -0.00611923      -0.01102643       0.00045097
S        5.51100000       0.00331789       8.91489861        1       0.00000000       0.00063223       0.00151309
Fe       3.67463801       3.67643830       0.00767378        0       0.00168176       0.00232993       0.00040726
Fe       5.51100000       5.51303524       0.00529538        0       0.00000000       0.00187819       0.00094385
S        3.67449767       5.51326540       1.16535514        1       0.00152364       0.00099219       0.00325656
S        5.51100000       3.72683461       3.97593801        1       0.00000000       0.00589554      -0.01672863
Fe       3.65184122       3.68570934       5.05920975        0      -0.01255830      -0.02320601      -0.00185505
S        3.61650830       5.51897004       6.15490525        1      -0.00456062       0.02573391      -0.00246980
S        5.51100000       3.67621638       8.91407604        1       0.00000000       0.00284724      -0.00172701
Fe       3.67511626       7.35037045       0.00719652        0       0.00046203       0.00019720       0.00046768
Fe       5.51100000       9.18788148       0.00528888        0       0.00000000      -0.00063481       0.00080707
S        3.67582156       9.18703556       1.16597136        1      -0.00042372       0.00004757       0.00134906
S        5.51100000       7.27793297       3.91443494        1       0.00000000      -0.01153834      -0.02317438
Fe       3.61509418       7.34875753       5.06302053        0       0.00000051      -0.01351243       0.00396336
Fe       5.51100000       9.18158226       5.06304084        0       0.00000000       0.02117689       0.01476636
S        3.66363216       9.19917837       6.19748976        1      -0.00351161       0.00681008       0.01222714
S        5.51100000       7.34968816       8.91301641        1       0.00000000       0.00019489      -0.00170078
Fe       7.34765099       0.00281514       0.00860391        0       0.00088626       0.00039209       0.00058313
Fe       9.18498177       1.83978590       0.00838302        0       0.00029233      -0.00003060       0.00138248
S        7.34782402       1.84024112       1.16721659        1      -0.00055022       0.00103050       0.00159563
S        9.19358269       0.01411913       3.88027088        1      -0.00252225      -0.00747625       0.00708905
Fe       7.34976277       0.01110857       5.04214367        0      -0.00617168      -0.00385923      -0.00914978
Fe       9.19315833       1.83918249       5.05052352        0       0.00196689       0.00183860      -0.00475346
S        7.35222128       1.83822567       6.20930593        1       0.00611923      -0.01102643       0.00045097
S        9.18491533       0.00266116       8.91686494        1       0.00093562       0.00072582      -0.00092174
Fe       7.34736199       3.67643830       0.00767378        0      -0.00168176       0.00232993       0.00040726
Fe       9.18471522       5.51377860       0.00646416        0      -0.00184014      -0.00022060       0.00299508
S        7.34750233       5.51326540       1.16535514        1      -0.00152364       0.00099219       0.00325656
S        9.19582654       3.66635934       3.87284574        1       0.00867387       0.00761432       0.00465164
Fe       7.37015878       3.68570934       5.05920975        0       0.01255830      -0.02320601      -0.00185505
Fe       9.19017254       5.51688115       5.04313183        0      -0.01813476      -0.00439222       0.00352293
S        7.40549170       5.51897004       6.15490525        1       0.00456062       0.02573391      -0.00246980
S        9.18447801       3.67606504       8.91544666        1      -0.00042835       0.00003034      -0.00004217
Fe       7.34688374       7.35037045       0.00719652        0      -0.00046203       0.00019720       0.00046768
Fe       9.18454540       9.18766080       0.00886086        0       0.00068803       0.00171621       0.00153983
S        7.34617844       9.18703556       1.16597136        1       0.00042372       0.00004757       0.00134906
S        9.20379793       7.36762864       3.86601854        1       0.00693092       0.00207848      -0.00832292
Fe       7.40690582       7.34875753       5.06302053        0      -0.00000051      -0.01351243       0.00396336
Fe       9.20035068       9.20329923       5.03927635        0       0.00375947       0.01264391      -0.00616139
S        7.35836784       9.19917837       6.19748976        1       0.00351161       0.00681008       0.01222714
S        9.18425293       7.35156700       8.91548568        1      -0.00093974       0.00048234       0.00090117
H        5.51100000       5.84689928       3.85817237        0       0.00000000      -0.01632676       0.00608863
