96
Lattice="8.886 0.0 0.0 0.0 10.85 0.0 0.0 0.0 13.548" Properties=species:S:1:pos:R:3:initial_magmoms:R:1 spacegroup="P n n m" unit_cell=primitive nspins=2 nkpts=8 fermi_level=12.476 natoms=96 mineral=marcasite rc=0.0 image_index=0 U_eV=0.0 nspin=2 source_file=results/dft_datasets/2026-06-03/marc_warm_neb_W2/prod_essentials/relaxed_endA_warm.xyz method=PBE_U0_ONCV geometry=dft_relaxed pbc="T T T"
Fe       0.00026987       0.00060586      -0.00000514       0.06500000
Fe       2.22724986       2.71565083       1.69098266       0.06500000
S        0.92651418       2.03276012      -0.00000514       0.00000000
S        3.52338897       3.39328520      -0.00000239       0.00000000
S        1.30186625       4.74476556       1.69257982       0.00000000
S        3.14680663       0.68185690       1.69095913       0.00000000
Fe       0.00236308       0.00228959       3.38509216       0.06500000
Fe       2.21963189       2.70828947       5.06796629       0.06500000
S        0.92194625       2.03207786       3.37464371       0.00000000
S        3.52812216       3.38848407       3.38757680       0.00000000
S        1.31065693       4.77861764       5.06328687       0.00000000
S        3.14256349       0.66971570       5.07159536       0.00000000
Fe      -0.00149354       0.00097639       6.77401270       0.06500000
Fe       2.21965455       2.70830765       8.48004164       0.06500000
S        0.90011489       2.02894808       6.77402234       0.00000000
S        3.45648514       3.23583542       6.77399018       0.00000000
S        1.31071770       4.77865492       8.48473977       0.00000000
S        3.14256643       0.66972977       8.47642140       0.00000000
Fe       0.00236185       0.00228342      10.16289786       0.06500000
Fe       2.22724528       2.71565705      11.85701559       0.06500000
S        0.92195338       2.03209322      10.17334634       0.00000000
S        3.52813816       3.38850818      10.16047379       0.00000000
S        1.30186572       4.74477802      11.85543551       0.00000000
S        3.14680534       0.68185913      11.85702329       0.00000000
Fe      -0.00018612       5.42735415       0.00000674       0.06500000
Fe       2.22131735       8.14012360       1.69182792       0.06500000
S        0.92063585       7.45927963       0.00000076       0.00000000
S        3.52014663       8.81952000      -0.00000465       0.00000000
S        1.30034952      10.17165330       1.68987125       0.00000000
S        3.13916222       6.10920547       1.68960411       0.00000000
Fe      -0.00057247       5.42982856       3.36914991       0.06500000
Fe       2.20499776       8.14362795       5.06605526       0.06500000
S        0.90549998       7.46988332       3.37791387       0.00000000
S        3.51503211       8.82063913       3.38291891       0.00000000
S        1.29747809      10.16953592       5.08148233       0.00000000
S        3.07284874       6.12075990       5.03590382       0.00000000
Fe       0.00175910       5.43000854       6.77401892       0.06500000
Fe       2.20503180       8.14358013       8.48194180       0.06500000
S        0.91017126       7.46710704       6.77403365       0.00000000
S        3.55463901       8.80317228       6.77400450       0.00000000
S        1.29748796      10.16951542       8.46653874       0.00000000
S        3.07293505       6.12066778       8.51190643       0.00000000
Fe      -0.00058234       5.42982285      10.17886159       0.06500000
Fe       2.22130811       8.14011837      11.85617444       0.06500000
S        0.90551809       7.46985517      10.17007114       0.00000000
S        3.51502916       8.82060483      10.16508689       0.00000000
S        1.30034638      10.17164893      11.85811636       0.00000000
S        3.13914901       6.10920392      11.85840361       0.00000000
Fe       4.44419737       0.00118671      -0.00000837       0.06500000
Fe       6.66657352       2.71332818       1.69277742       0.06500000
S        5.36790467       2.03302258      -0.00000267       0.00000000
S        7.96550580       3.39338913       0.00000154       0.00000000
S        5.74695626       4.74528628       1.68859759       0.00000000
S        7.58838944       0.68039714       1.69021152       0.00000000
Fe       4.44432301       0.00126052       3.38443559       0.06500000
Fe       6.68542214       2.71159113       5.06610562       0.06500000
S        5.37378522       2.03042123       3.38367167       0.00000000
S        7.98428189       3.39041161       3.37425395       0.00000000
S        5.82446971       4.74015121       5.02350190       0.00000000
S        7.59353545       0.67798918       5.07564534       0.00000000
Fe       4.45248422       0.01624805       6.77400939       0.06500000
Fe       6.68538610       2.71161435       8.48191016       0.06500000
S        5.40432949       2.02785346       6.77401752       0.00000000
S        7.98077569       3.39865552       6.77403554       0.00000000
S        5.82434735       4.74018519       8.52432863       0.00000000
S        7.59353444       0.67798929       8.47237883       0.00000000
Fe       4.44432324       0.00125447      10.16356343       0.06500000
Fe       6.66657941       2.71333019      11.85522948       0.06500000
S        5.37378714       2.03043617      10.16434784       0.00000000
S        7.98425917       3.39042941      10.17374295       0.00000000
S        5.74696378       4.74528803      11.85941055       0.00000000
S        7.58839134       0.68039828      11.85777637       0.00000000
Fe       4.44375619       5.42727832       0.00001106       0.06500000
Fe       6.65917003       8.13847943       1.69442257       0.06500000
S        5.36344718       7.46037503      -0.00000434       0.00000000
S        7.95985154       8.81967755      -0.00000827       0.00000000
S        5.74138047      10.17049311       1.69235654       0.00000000
S        7.58275584       6.11103300       1.69284129       0.00000000
Fe       4.44402708       5.42757084       3.42219641       0.06500000
Fe       6.65665142       8.15086127       5.07758801       0.06500000
S        5.35571522       7.46920501       3.39456840       0.00000000
S        7.96612959       8.82361181       3.38247742       0.00000000
S        5.74650692      10.17880324       5.07580695       0.00000000
S        7.57223792       6.08935059       5.07121630       0.00000000
Fe       6.65660975       8.15081519       8.47039646       0.06500000
S        5.36014308       7.50653088       6.77395471       0.00000000
S        7.96135566       8.81865197       6.77402270       0.00000000
S        5.74649967      10.17877238       8.47220691       0.00000000
S        7.57214401       6.08928750       8.47678727       0.00000000
Fe       4.44402417       5.42755439      10.12585052       0.06500000
Fe       6.65917258       8.13847154      11.85356808       0.06500000
S        5.35568604       7.46916343      10.15347079       0.00000000
S        7.96611667       8.82358816      10.16550134       0.00000000
S        5.74138085      10.17048758      11.85562537       0.00000000
S        7.58275013       6.11102164      11.85517229       0.00000000
H        4.02417647       4.50068707       6.77405054       0.00000000
