96
Lattice="8.886 0.0 0.0 0.0 10.85 0.0 0.0 0.0 13.548" Properties=species:S:1:pos:R:3:initial_magmoms:R:1:forces:R:3 spacegroup="P n n m" unit_cell=primitive nspins=2 nkpts=8 fermi_level=12.476 natoms=96 mineral=marcasite rc=0.0 image_index=0 U_eV=0.0 nspin=2 source_file=results/dft_datasets/2026-06-03/marc_warm_neb_W2/prod_essentials/neb_warm.traj method=PBE_U0_ONCV energy=-124948.2037928406 pbc="T T T"
Fe       0.00026987       0.00060586      -0.00000514       0.06500000       0.00162751       0.00848284       0.00002134
Fe       2.22724986       2.71565083       1.69098266       0.06500000       0.00547979      -0.00853761      -0.00703042
S        0.92651418       2.03276012      -0.00000514       0.00000000      -0.00182780       0.00468686       0.00003291
S        3.52338897       3.39328520      -0.00000239       0.00000000       0.00069394       0.00157480       0.00004962
S        1.30186625       4.74476556       1.69257982       0.00000000      -0.00772874       0.00721786      -0.00288838
S        3.14680663       0.68185690       1.69095913       0.00000000      -0.00096853      -0.00338871      -0.00169281
Fe       0.00236308       0.00228959       3.38509216       0.06500000       0.00496120       0.00999542      -0.00399652
Fe       2.21963189       2.70828947       5.06796629       0.06500000      -0.01209241      -0.02622988      -0.00213530
S        0.92194625       2.03207786       3.37464371       0.00000000      -0.00596522       0.00336172       0.00325322
S        3.52812216       3.38848407       3.38757680       0.00000000      -0.00214790       0.00018255       0.03179349
S        1.31065693       4.77861764       5.06328687       0.00000000      -0.01651677      -0.01458484       0.00053505
S        3.14256349       0.66971570       5.07159536       0.00000000      -0.00315937      -0.00543120       0.00238290
Fe      -0.00149354       0.00097639       6.77401270       0.06500000      -0.00427857      -0.00537438       0.00005039
Fe       2.21965455       2.70830765       8.48004164       0.06500000      -0.01223537      -0.02658444       0.00217001
S        0.90011489       2.02894808       6.77402234       0.00000000      -0.00544560      -0.00496789      -0.00005579
S        3.45648514       3.23583542       6.77399018       0.00000000       0.00237004       0.01830754       0.00011544
S        1.31071770       4.77865492       8.48473977       0.00000000      -0.01699628      -0.01492525      -0.00064329
S        3.14256643       0.66972977       8.47642140       0.00000000      -0.00312466      -0.00557544      -0.00239421
Fe       0.00236185       0.00228342      10.16289786       0.06500000       0.00496017       0.00997922       0.00409808
Fe       2.22724528       2.71565705      11.85701559       0.06500000       0.00549368      -0.00857154       0.00717749
S        0.92195338       2.03209322      10.17334634       0.00000000      -0.00607140       0.00327790      -0.00321208
S        3.52813816       3.38850818      10.16047379       0.00000000      -0.00226720       0.00000283      -0.03222544
S        1.30186572       4.74477802      11.85543551       0.00000000      -0.00780818       0.00715795       0.00280045
S        3.14680534       0.68185913      11.85702329       0.00000000      -0.00099964      -0.00343268       0.00177586
Fe      -0.00018612       5.42735415       0.00000674       0.06500000      -0.00158071      -0.00284853       0.00004834
Fe       2.22131735       8.14012360       1.69182792       0.06500000       0.00241092       0.00753873      -0.00835943
S        0.92063585       7.45927963       0.00000076       0.00000000      -0.00159511       0.00478714      -0.00000103
S        3.52014663       8.81952000      -0.00000465       0.00000000      -0.00037667       0.00325990      -0.00000000
S        1.30034952      10.17165330       1.68987125       0.00000000       0.00067337       0.00208748       0.00000437
S        3.13916222       6.10920547       1.68960411       0.00000000       0.00732276      -0.00313083       0.01508698
Fe      -0.00057247       5.42982856       3.36914991       0.06500000       0.00313700      -0.00835506       0.01435061
Fe       2.20499776       8.14362795       5.06605526       0.06500000      -0.01710863       0.03085658      -0.01495096
S        0.90549998       7.46988332       3.37791387       0.00000000       0.00216358       0.00567880      -0.00563946
S        3.51503211       8.82063913       3.38291891       0.00000000      -0.00380806       0.00460613       0.00247597
S        1.29747809      10.16953592       5.08148233       0.00000000      -0.00147890       0.00278579       0.00395436
S        3.07284874       6.12075990       5.03590382       0.00000000      -0.01557471       0.02077863      -0.03475926
Fe       0.00175910       5.43000854       6.77401892       0.06500000      -0.00059238      -0.00747034      -0.00021392
Fe       2.20503180       8.14358013       8.48194180       0.06500000      -0.01729787       0.03128775       0.01492628
S        0.91017126       7.46710704       6.77403365       0.00000000       0.00462182      -0.00166633      -0.00025068
S        3.55463901       8.80317228       6.77400450       0.00000000      -0.01067419      -0.00508204      -0.00011056
S        1.29748796      10.16951542       8.46653874       0.00000000      -0.00137914       0.00281716      -0.00404049
S        3.07293505       6.12066778       8.51190643       0.00000000      -0.01600126       0.02146485       0.03584169
Fe      -0.00058234       5.42982285      10.17886159       0.06500000       0.00315886      -0.00834940      -0.01442286
Fe       2.22130811       8.14011837      11.85617444       0.06500000       0.00242944       0.00757756       0.00839594
S        0.90551809       7.46985517      10.17007114       0.00000000       0.00209005       0.00566491       0.00564691
S        3.51502916       8.82060483      10.16508689       0.00000000      -0.00368593       0.00470486      -0.00253459
S        1.30034638      10.17164893      11.85811636       0.00000000       0.00068391       0.00209056       0.00001054
S        3.13914901       6.10920392      11.85840361       0.00000000       0.00743512      -0.00323830      -0.01525256
Fe       4.44419737       0.00118671      -0.00000837       0.06500000       0.00316760       0.00757113       0.00005862
Fe       6.66657352       2.71332818       1.69277742       0.06500000      -0.00067363      -0.00360186      -0.01506461
S        5.36790467       2.03302258      -0.00000267       0.00000000      -0.00191084       0.00046254       0.00001183
S        7.96550580       3.39338913       0.00000154       0.00000000       0.00606240       0.00532964       0.00001080
S        5.74695626       4.74528628       1.68859759       0.00000000      -0.00438630       0.00755236       0.01818670
S        7.58838944       0.68039714       1.69021152       0.00000000      -0.00114645       0.00180543       0.00254642
Fe       4.44432301       0.00126052       3.38443559       0.06500000      -0.00177458       0.00564486      -0.00780253
Fe       6.68542214       2.71159113       5.06610562       0.06500000       0.01511526      -0.03612169      -0.01573052
S        5.37378522       2.03042123       3.38367167       0.00000000      -0.00572070      -0.00373864       0.00814654
S        7.98428189       3.39041161       3.37425395       0.00000000       0.00185659      -0.00245797       0.00150101
S        5.82446971       4.74015121       5.02350190       0.00000000       0.03003511      -0.01308512      -0.02933166
S        7.59353545       0.67798918       5.07564534       0.00000000      -0.00737521      -0.00755827       0.00464187
Fe       4.45248422       0.01624805       6.77400939       0.06500000      -0.01255650      -0.00050522      -0.00004757
Fe       6.68538610       2.71161435       8.48191016       0.06500000       0.01532866      -0.03646570       0.01561765
S        5.40432949       2.02785346       6.77401752       0.00000000       0.00048902      -0.00419270      -0.00016481
S        7.98077569       3.39865552       6.77403554       0.00000000      -0.01433981      -0.00527488      -0.00022266
S        5.82434735       4.74018519       8.52432863       0.00000000       0.03066143      -0.01351295       0.03036241
S        7.59353444       0.67798929       8.47237883       0.00000000      -0.00754027      -0.00752768      -0.00471772
Fe       4.44432324       0.00125447      10.16356343       0.06500000      -0.00178615       0.00561323       0.00786038
Fe       6.66657941       2.71333019      11.85522948       0.06500000      -0.00067286      -0.00367025       0.01514765
S        5.37378714       2.03043617      10.16434784       0.00000000      -0.00586160      -0.00383274      -0.00824270
S        7.98425917       3.39042941      10.17374295       0.00000000       0.00190005      -0.00246646      -0.00149150
S        5.74696378       4.74528803      11.85941055       0.00000000      -0.00450123       0.00757498      -0.01833685
S        7.58839134       0.68039828      11.85777637       0.00000000      -0.00114954       0.00177946      -0.00253279
Fe       4.44375619       5.42727832       0.00001106       0.06500000       0.00025840      -0.00157711      -0.00005219
Fe       6.65917003       8.13847943       1.69442257       0.06500000      -0.00555564       0.01478796      -0.01514380
S        5.36344718       7.46037503      -0.00000434       0.00000000       0.01186847       0.01054409       0.00005014
S        7.95985154       8.81967755      -0.00000827       0.00000000      -0.00320848      -0.00365688       0.00002957
S        5.74138047      10.17049311       1.69235654       0.00000000       0.00134803       0.00247854       0.00288966
S        7.58275584       6.11103300       1.69284129       0.00000000       0.01408836       0.00283567       0.00464573
Fe       4.44402708       5.42757084       3.42219641       0.06500000      -0.01030421      -0.00381835      -0.01784603
Fe       6.65665142       8.15086127       5.07758801       0.06500000       0.01240763       0.03431240       0.01048804
S        5.35571522       7.46920501       3.39456840       0.00000000       0.00003985      -0.00592511       0.02101517
S        7.96612959       8.82361181       3.38247742       0.00000000       0.00318585      -0.00883302      -0.00689621
S        5.74650692      10.17880324       5.07580695       0.00000000      -0.00445007      -0.01478461      -0.01051144
S        7.57223792       6.08935059       5.07121630       0.00000000       0.02154816       0.00826070      -0.01756398
Fe       6.65660975       8.15081519       8.47039646       0.06500000       0.01262643       0.03475386      -0.01031964
S        5.36014308       7.50653088       6.77395471       0.00000000       0.03296848       0.00654654       0.00025891
S        7.96135566       8.81865197       6.77402270       0.00000000      -0.00378415      -0.02367343      -0.00011184
S        5.74649967      10.17877238       8.47220691       0.00000000      -0.00451023      -0.01462341       0.01047416
S        7.57214401       6.08928750       8.47678727       0.00000000       0.02214003       0.00869136       0.01756501
Fe       4.44402417       5.42755439      10.12585052       0.06500000      -0.01032298      -0.00370676       0.01737474
Fe       6.65917258       8.13847154      11.85356808       0.06500000      -0.00559215       0.01477587       0.01525693
S        5.35568604       7.46916343      10.15347079       0.00000000       0.00016301      -0.00577650      -0.02144789
S        7.96611667       8.82358816      10.16550134       0.00000000       0.00327301      -0.00880680       0.00690855
S        5.74138085      10.17048758      11.85562537       0.00000000       0.00137425       0.00249628      -0.00280842
S        7.58275013       6.11102164      11.85517229       0.00000000       0.01416781       0.00286498      -0.00473109
H        4.02417647       4.50068707       6.77405054       0.00000000       0.00212322      -0.01195769      -0.00011827
96
Lattice="8.886 0.0 0.0 0.0 10.85 0.0 0.0 0.0 13.548" Properties=species:S:1:pos:R:3:initial_magmoms:R:1:forces:R:3 spacegroup="P n n m" unit_cell=primitive nspins=2 nkpts=8 fermi_level=12.476 natoms=96 mineral=marcasite rc=0.125 image_index=1 U_eV=0.0 nspin=2 source_file=results/dft_datasets/2026-06-03/marc_warm_neb_W2/prod_essentials/neb_warm.traj method=PBE_U0_ONCV energy=-124948.05248217187 pbc="T T T"
Fe       0.00247376       0.00478464      -0.00174713       0.06500000      -0.00608452      -0.00697335      -0.00011699
Fe       2.23049096       2.71763926       1.68818604       0.06500000      -0.00517357       0.01767505       0.01711249
S        0.93076619       2.03693794      -0.00252986       0.00000000       0.01357311       0.00660799       0.00054585
S        3.52622658       3.39580786      -0.00201075       0.00000000      -0.02163403      -0.01725082       0.00025891
S        1.30594806       4.74696196       1.68985333       0.00000000       0.00902766      -0.02020707       0.01033044
S        3.14933591       0.68489299       1.68832302       0.00000000      -0.00120970       0.01169235       0.00167816
Fe       0.00399115       0.00443108       3.38182672       0.06500000      -0.00893690      -0.00917190       0.03009245
Fe       2.21159160       2.70566047       5.06432975       0.06500000       0.00620639       0.01783626       0.01224539
S        0.92133364       2.03265673       3.36869531       0.00000000       0.00702040       0.00011081      -0.01085365
S        3.52726003       3.38819555       3.39010529       0.00000000      -0.00532398      -0.00223223      -0.01964349
S        1.30452974       4.77519239       5.06050946       0.00000000      -0.01314605       0.00733227       0.01821344
S        3.14238157       0.67397421       5.07003761       0.00000000       0.00925263      -0.00043220      -0.00173627
Fe      -0.00197590       0.00206078       6.77266486       0.06500000      -0.00283156      -0.00154652      -0.00009976
Fe       2.21428045       2.71362259       8.47692782       0.06500000       0.00383197       0.00930739      -0.00988718
S        0.89680245       2.02808137       6.77204330       0.00000000      -0.00518412      -0.00007765      -0.00156734
S        3.43717500       3.26420722       6.76324292       0.00000000      -0.00267086      -0.04533678       0.00647018
S        1.30568625       4.77978310       8.48437597       0.00000000      -0.01492140       0.00388005      -0.01993608
S        3.14391988       0.67893539       8.47310606       0.00000000       0.00875718      -0.00267935       0.00032782
Fe       0.00475642       0.00771990      10.16230127       0.06500000      -0.00827664      -0.01144038      -0.03093551
Fe       2.23054379       2.71939670      11.85435706       0.06500000      -0.00468969       0.01610693      -0.01840961
S        0.92354486       2.03579505      10.17248588       0.00000000       0.00620073      -0.00209853       0.01102001
S        3.52780868       3.39234834      10.15302821       0.00000000      -0.00412122      -0.00390396       0.01967717
S        1.30556092       4.74845135      11.85472104       0.00000000       0.01031861      -0.02073492      -0.01135785
S        3.14966269       0.68683589      11.85614051       0.00000000      -0.00093691       0.00958944      -0.00166428
Fe       0.00251817       5.43076311      -0.00128252       0.06500000       0.00215356       0.01274187      -0.00101636
Fe       2.22463907       8.14387444       1.69065968       0.06500000      -0.00082584      -0.00584617       0.01657873
S        0.92442285       7.46284828      -0.00078309       0.00000000       0.00761741       0.00801978      -0.00168536
S        3.52273289       8.82394163      -0.00064671       0.00000000      -0.00433514       0.00255491      -0.00159614
S        1.30224408      10.17508815       1.68697544       0.00000000      -0.00826147       0.00731196      -0.01005327
S        3.14395069       6.11217778       1.68929399       0.00000000      -0.00482982       0.00657740      -0.01045976
Fe       0.00320818       5.43173577       3.36525854       0.06500000      -0.00010310       0.01440178      -0.04481998
Fe       2.20584590       8.14853262       5.06433667       0.06500000       0.01291799      -0.02949750       0.00787272
S        0.90842119       7.47331662       3.37433134       0.00000000      -0.00319202       0.00126473      -0.00475448
S        3.51570902       8.82524582       3.38120793       0.00000000      -0.00026174       0.00836148      -0.00858826
S        1.29803626      10.17252527       5.07997742       0.00000000      -0.00626681       0.00760764      -0.00419373
S        3.07106459       6.12678885       5.02591789       0.00000000      -0.01133085       0.02272187      -0.01443160
Fe       0.00368808       5.43250372       6.77257997       0.06500000      -0.00126910       0.00186714      -0.00030236
Fe       2.20516393       8.15176572       8.48374549       0.06500000       0.01463703      -0.03202900      -0.01288200
S        0.91273232       7.47093420       6.77372867       0.00000000      -0.01196617      -0.00165296      -0.00264541
S        3.55500089       8.80982084       6.77383172       0.00000000      -0.00970514       0.01226442      -0.00261250
S        1.29825881      10.17581897       8.46529231       0.00000000      -0.00623415       0.00528053       0.00216898
S        3.07003767       6.13183658       8.52134967       0.00000000      -0.01042814       0.01742334       0.01112876
Fe       0.00265961       5.43416113      10.17999071       0.06500000       0.00055716       0.01076547       0.04340536
Fe       2.22451744       8.14557678      11.85620558       0.06500000      -0.00037435      -0.00747265      -0.02211843
S        0.90745097       7.47624580      10.17272135       0.00000000      -0.00188668      -0.00097728       0.00042912
S        3.51547127       8.82851575      10.16565832       0.00000000      -0.00013524       0.00646992       0.00432254
S        1.30244696      10.17698878      11.85786559       0.00000000      -0.00861268       0.00647147       0.00940741
S        3.14375706       6.11389989      11.85708818       0.00000000      -0.00417136       0.00598836       0.00823036
Fe       4.44709832       0.00519668      -0.00165011       0.06500000      -0.00550987      -0.00885488      -0.00028128
Fe       6.66788171       2.71562549       1.69033250       0.06500000      -0.00327764       0.01198288       0.04387279
S        5.37107414       2.03673354      -0.00227963       0.00000000       0.01050193       0.01183170       0.00033013
S        7.96710937       3.39688000      -0.00193422       0.00000000      -0.01803732      -0.01463780      -0.00016455
S        5.74812740       4.74711395       1.68882920       0.00000000       0.00194170      -0.00677743      -0.01453342
S        7.59068854       0.68291230       1.68782227       0.00000000       0.01013760       0.00407803      -0.01153911
Fe       4.44542739       0.00416884       3.38181868       0.06500000      -0.00263692      -0.00520237       0.00630512
Fe       6.69056137       2.71113742       5.06295530       0.06500000      -0.01812962       0.03823513       0.01484324
S        5.37479458       2.03133027       3.38192202       0.00000000      -0.00224586      -0.00447269      -0.01586345
S        7.98865445       3.39069015       3.36726641       0.00000000       0.00260093      -0.00666301      -0.00870036
S        5.83369335       4.73787997       5.01503931       0.00000000       0.00805629      -0.01723333      -0.01900482
S        7.59553245       0.67792898       5.07235705       0.00000000       0.00798070      -0.00754953      -0.00479536
Fe       4.45299339       0.02872863       6.77214879       0.06500000       0.00854506      -0.00496686      -0.00015709
Fe       6.68929603       2.71366840       8.47957838       0.06500000      -0.01738271       0.03786232      -0.01296427
S        5.41704362       2.03663256       6.76978611       0.00000000      -0.01716083      -0.01853277       0.00167353
S        7.98245462       3.39985856       6.77176066       0.00000000       0.01881713      -0.00178537       0.00038104
S        5.83144641       4.74038029       8.52701751       0.00000000       0.01026307      -0.01793756       0.01698754
S        7.59510553       0.68018925       8.47153280       0.00000000       0.00820773      -0.00934930       0.00549188
Fe       4.44563735       0.00728889      10.16277670       0.06500000      -0.00312466      -0.00662470      -0.00739321
Fe       6.66826603       2.71719646      11.85295212       0.06500000      -0.00375870       0.01106397      -0.04391033
S        5.37494650       2.03421554      10.16133214       0.00000000      -0.00288349      -0.00657380       0.01674457
S        7.98833968       3.39356683      10.17518494       0.00000000       0.00377592      -0.00920943       0.01034998
S        5.74810459       4.74872640      11.85600886       0.00000000       0.00342162      -0.00833603       0.01329595
S        7.59130284       0.68486395      11.85646283       0.00000000       0.00948454       0.00266366       0.01164041
Fe       4.44748004       5.43079159      -0.00126849       0.06500000       0.00264361       0.00877646      -0.00243921
Fe       6.66127620       8.14194613       1.69453550       0.06500000       0.00411788      -0.01539577       0.03928029
S        5.36824093       7.46547101      -0.00088207       0.00000000       0.00643187       0.01403308      -0.00188205
S        7.96095400       8.82290442      -0.00090767       0.00000000      -0.00634677       0.00981004      -0.00142336
S        5.74349957      10.17367228       1.69111394       0.00000000      -0.00414230       0.00618659      -0.00179900
S        7.58589653       6.11473419       1.69230206       0.00000000      -0.01456736       0.01074181       0.00435031
Fe       4.44563336       5.42835830       3.42387917       0.06500000       0.00615085       0.00792311       0.04408928
Fe       6.65933518       8.15484098       5.07604547       0.06500000      -0.01682427      -0.03319140      -0.03009785
S        5.35705295       7.47132290       3.39598841       0.00000000      -0.01158128       0.00353064      -0.01501241
S        7.97016322       8.82715259       3.37968913       0.00000000       0.00929557       0.02428690      -0.00957479
S        5.74726942      10.18268359       5.07203173       0.00000000      -0.01439149       0.01428222       0.00495760
S        7.57865680       6.09291283       5.06698272       0.00000000       0.01180882      -0.00838591       0.02241513
Fe       6.65928999       8.15686680       8.47055927       0.06500000      -0.01650545      -0.03478985       0.02614786
S        5.36954863       7.51640909       6.77408994       0.00000000       0.00923566       0.01422103      -0.00200597
S        7.96388705       8.81994133       6.77310317       0.00000000       0.00820208       0.00508024      -0.00130561
S        5.74743193      10.18489518       8.47309766       0.00000000      -0.01473731       0.01252333      -0.00601818
S        7.57773039       6.09386751       8.47877553       0.00000000       0.01251202      -0.00905491      -0.02454786
Fe       4.44511025       5.43150245      10.12084542       0.06500000       0.00681265       0.00535689      -0.04470686
Fe       6.66103455       8.14356542      11.85184637       0.06500000       0.00484550      -0.01647332      -0.04199383
S        5.35666066       7.47415191      10.15015549       0.00000000      -0.00966812       0.00197152       0.01234541
S        7.97010765       8.82985928      10.16674918       0.00000000       0.00955808       0.02226652       0.00656068
S        5.74353302      10.17540629      11.85373742       0.00000000      -0.00440481       0.00488150       0.00070937
S        7.58544440       6.11618394      11.85359299       0.00000000      -0.01350318       0.00976685      -0.00676637
H        3.84834467       4.59120791       6.70754799       0.00000000       0.11273028      -0.05803108       0.06296015
96
Lattice="8.886 0.0 0.0 0.0 10.85 0.0 0.0 0.0 13.548" Properties=species:S:1:pos:R:3:initial_magmoms:R:1:forces:R:3 spacegroup="P n n m" unit_cell=primitive nspins=2 nkpts=8 fermi_level=12.476 natoms=96 mineral=marcasite rc=0.25 image_index=2 U_eV=0.0 nspin=2 source_file=results/dft_datasets/2026-06-03/marc_warm_neb_W2/prod_essentials/neb_warm.traj method=PBE_U0_ONCV energy_stale_dyneb_skip=T note="energy_stale_dyneb_skip: image_02 has CRASH file, DyNEB skipped this image" energy=-124948.16182826075 pbc="T T T"
Fe       0.00293523       0.00515350       0.00002907       0.06500000       0.00074073       0.00123053      -0.00109863
Fe       2.23052689       2.71727646       1.68849257       0.06500000      -0.00288144       0.00141411      -0.00848027
S        0.93083185       2.03729391      -0.00180921       0.00000000      -0.01665561      -0.00361831      -0.00044891
S        3.52621940       3.39633563      -0.00069666       0.00000000       0.01525615       0.01599689      -0.00145473
S        1.30552760       4.74682808       1.69111979       0.00000000      -0.00937064       0.01457893      -0.00275365
S        3.14959419       0.68452733       1.69043722       0.00000000      -0.00384534      -0.00082558      -0.00204737
Fe       0.00431982       0.00294597       3.38354486       0.06500000      -0.00032293       0.00260170      -0.01253130
Fe       2.20743448       2.70408653       5.06334009       0.06500000       0.00414565       0.00192936      -0.00308584
S        0.92006782       2.03130379       3.36828592       0.00000000      -0.00502985       0.00817277      -0.00055202
S        3.52651414       3.38705509       3.39016307       0.00000000       0.00712530       0.01031064      -0.00103513
S        1.29885516       4.77284449       5.05941739       0.00000000       0.03136360       0.01800132      -0.00827870
S        3.14259678       0.67699675       5.07208234       0.00000000      -0.01132211       0.00080707       0.00128709
Fe      -0.00056519       0.00269930       6.77497463       0.06500000       0.00210985       0.00288144      -0.00223455
Fe       2.21372982       2.72190671       8.47636546       0.06500000       0.00090786      -0.00727982       0.00443490
S        0.89813085       2.03004328       6.77342103       0.00000000      -0.00852166       0.00327224      -0.00263744
S        3.43247325       3.29057418       6.75279488       0.00000000       0.00379855      -0.05688823       0.01713615
S        1.30366688       4.78370155       8.48773279       0.00000000       0.02209580       0.00875332       0.00921895
S        3.14588907       0.68808615       8.47247147       0.00000000      -0.01080866      -0.00415670      -0.00266855
Fe       0.00608875       0.00976187      10.16362537       0.06500000       0.00002494      -0.00041498       0.01039137
Fe       2.23095717       2.72078008      11.85473407       0.06500000      -0.00219984       0.00051088       0.00992677
S        0.92564980       2.03772462      10.17184095       0.00000000      -0.00815168       0.00577855       0.00206768
S        3.52803001       3.39624424      10.15405098       0.00000000       0.00614339       0.00424901       0.00372707
S        1.30541091       4.74971247      11.85637786       0.00000000      -0.00953262       0.01460901       0.00031599
S        3.15025111       0.68842233      11.85765819       0.00000000      -0.00319640      -0.00274645      -0.00070371
Fe       0.00275152       5.43123318       0.00058410       0.06500000      -0.00178820       0.00159871      -0.00131281
Fe       2.22511926       8.14349919       1.69356952       0.06500000      -0.00368850      -0.00163419      -0.01279124
S        0.92506141       7.46332861       0.00167151       0.00000000      -0.01471005       0.00224509      -0.00320385
S        3.52322848       8.82448733       0.00204790       0.00000000       0.00827484       0.00088754      -0.00320334
S        1.30287114      10.17454700       1.68908051       0.00000000       0.00724383      -0.00072891       0.00214970
S        3.14414354       6.11189544       1.69185910       0.00000000      -0.00857694      -0.00109838      -0.00218595
Fe       0.00229073       5.43148176       3.36675610       0.06500000      -0.00504990       0.00364351       0.02673510
Fe       2.20719109       8.14757398       5.06852648       0.06500000      -0.01091768       0.01226493      -0.01012963
S        0.90883576       7.47225952       3.37761630       0.00000000      -0.00766677       0.00471283       0.00498228
S        3.51619586       8.82433304       3.38481425       0.00000000       0.00227877      -0.00214996       0.00163188
S        1.29962934      10.17216300       5.08258215       0.00000000      -0.00285855       0.00211679      -0.00322673
S        3.07095298       6.12248545       5.02864641       0.00000000       0.01036360      -0.01258606       0.01664044
Fe       0.00220028       5.43340854       6.77440788       0.06500000       0.00031933       0.00267112      -0.00154960
Fe       2.20534708       8.15544233       8.48750697       0.06500000      -0.00782027       0.00597164      -0.00220909
S        0.91264500       7.47140214       6.77686719       0.00000000       0.00237698      -0.00052425      -0.00248497
S        3.55558357       8.81206111       6.77735742       0.00000000       0.01404362      -0.00792234      -0.00336866
S        1.29978082      10.17973597       8.46675518       0.00000000      -0.00222478      -0.00280045      -0.00083381
S        3.06860519       6.13652879       8.52830429       0.00000000       0.01298227      -0.03488473      -0.03585583
Fe       0.00172556       5.43605097      10.18219747       0.06500000      -0.00589323       0.00116934      -0.03112732
Fe       2.22487755       8.14705193      11.85886530       0.06500000      -0.00347922      -0.00284673       0.00837717
S        0.90644781       7.47858669      10.17545176       0.00000000      -0.00301410       0.00112820      -0.01241226
S        3.51542936       8.83190466      10.16796887       0.00000000       0.00240475      -0.00832832      -0.00919272
S        1.30315178      10.17840154      11.85959842       0.00000000       0.00838720      -0.00155115      -0.00500594
S        3.14420417       6.11558889      11.85990546       0.00000000      -0.00836303      -0.00347330      -0.00496891
Fe       4.44734911       0.00574492       0.00026205       0.06500000      -0.00205431       0.00351881      -0.00145319
Fe       6.66791358       2.71522120       1.69161307       0.06500000       0.00020775       0.00715975      -0.01768148
S        5.37109167       2.03701172      -0.00085552       0.00000000      -0.01352092      -0.00355609      -0.00152646
S        7.96731774       3.39704654      -0.00031726       0.00000000       0.01116810       0.01105034      -0.00156503
S        5.74829309       4.74679057       1.69004795       0.00000000       0.00480899       0.01071970      -0.00133235
S        7.59079450       0.68225706       1.68992838       0.00000000      -0.01377083       0.00465601       0.00016661
Fe       4.44569592       0.00401268       3.38442251       0.06500000      -0.00166530       0.00073996       0.00183243
Fe       6.69254843       2.70960060       5.06437465       0.06500000       0.00445932      -0.00717595      -0.00840339
S        5.37505525       2.03025404       3.38365475       0.00000000       0.00251017       0.00768143       0.00527925
S        7.98903897       3.38918758       3.36680249       0.00000000      -0.00518771       0.00505762       0.01350498
S        5.83399299       4.73449182       5.01313847       0.00000000      -0.02132884       0.02966385       0.02519835
S        7.59734272       0.67661141       5.07408047       0.00000000      -0.00935342       0.00130458      -0.00208079
Fe       4.45364267       0.03575774       6.77368690       0.06500000      -0.00429169      -0.00233610      -0.00148378
Fe       6.68980378       2.71477250       8.48038970       0.06500000       0.00734976      -0.01114702       0.00521625
S        5.42369795       2.03950593       6.76904864       0.00000000       0.00230037       0.00687822       0.00278476
S        7.98367703       3.39999978       6.77351871       0.00000000      -0.00676483       0.00625575      -0.00199595
S        5.82894737       4.73992824       8.52725617       0.00000000      -0.02061742       0.02751337      -0.02695699
S        7.59610796       0.68106649       8.47305878       0.00000000      -0.00664167      -0.00038901      -0.00013010
Fe       4.44587145       0.01070111      10.16381128       0.06500000      -0.00099090      -0.00202886      -0.00504013
Fe       6.66887469       2.71820248      11.85431714       0.06500000      -0.00004294       0.00545794       0.01653296
S        5.37534386       2.03634355      10.16231105       0.00000000       0.00291949       0.00586674      -0.00788866
S        7.98920476       3.39477490      10.17702244       0.00000000      -0.00746443       0.00249963      -0.01422669
S        5.74870235       4.74988410      11.85810648       0.00000000       0.00417701       0.01042017      -0.00284184
S        7.59201318       0.68604709      11.85785231       0.00000000      -0.01406393       0.00351598      -0.00276136
Fe       4.44770199       5.43135904       0.00072141       0.06500000      -0.00522962       0.00346302      -0.00050985
Fe       6.66144010       8.14207464       1.69670737       0.06500000      -0.00071014       0.00342959      -0.02684694
S        5.36849610       7.46642438       0.00132182       0.00000000      -0.01759277      -0.01233152      -0.00198412
S        7.96143079       8.82370565       0.00137846       0.00000000       0.00765289       0.00656763      -0.00166170
S        5.74364129      10.17372311       1.69345861       0.00000000      -0.00015247       0.00022034      -0.00542349
S        7.58568407       6.11493930       1.69368734       0.00000000       0.00677049      -0.00631926      -0.00668615
Fe       4.44646621       5.42651388       3.42390251       0.06500000       0.00034993       0.00860831      -0.04418749
Fe       6.65859254       8.15484260       5.07902657       0.06500000       0.01280538       0.02017905       0.01692866
S        5.35722108       7.47055635       3.39810068       0.00000000       0.01313088       0.00927500      -0.00082301
S        7.97021928       8.82611096       3.38275546       0.00000000      -0.01591873      -0.01921617      -0.00244743
S        5.74766074      10.18347836       5.07449270       0.00000000       0.00926111      -0.00486118       0.00728831
S        7.57639388       6.09264471       5.06937827       0.00000000      -0.01867315       0.00257316      -0.00734616
Fe       6.65863527       8.15871623       8.47252446       0.06500000       0.01308074       0.01914289      -0.02057011
S        5.36786123       7.51779198       6.77745661       0.00000000      -0.03349170      -0.03517552      -0.00414616
S        7.96423527       8.82024965       6.77540474       0.00000000      -0.00404383       0.00742535      -0.00221192
S        5.74781787      10.18776353       8.47470194       0.00000000       0.00987072      -0.00665684      -0.01066751
S        7.57510566       6.09409716       8.48098065       0.00000000      -0.02083776       0.00190930       0.00163574
Fe       4.44493750       5.43383554      10.12383431       0.06500000       0.00330412       0.00343371       0.04543242
Fe       6.66094994       8.14519355      11.85426089       0.06500000      -0.00004165       0.00291049       0.02223953
S        5.35674668       7.47655623      10.15234513       0.00000000       0.01331034       0.00541192      -0.00273205
S        7.97025573       8.83147475      10.16868118       0.00000000      -0.01472471      -0.02048809      -0.00239730
S        5.74348233      10.17703246      11.85515009       0.00000000       0.00072454      -0.00027382       0.00211885
S        7.58510108       6.11755719      11.85627357       0.00000000       0.00711167      -0.00772282       0.00336326
H        3.76163576       4.64480544       6.61711573       0.00000000       0.13740490      -0.10187919       0.14453842
96
Lattice="8.886 0.0 0.0 0.0 10.85 0.0 0.0 0.0 13.548" Properties=species:S:1:pos:R:3:initial_magmoms:R:1:forces:R:3 spacegroup="P n n m" unit_cell=primitive nspins=2 nkpts=8 fermi_level=12.476 natoms=96 mineral=marcasite rc=0.375 image_index=3 U_eV=0.0 nspin=2 source_file=results/dft_datasets/2026-06-03/marc_warm_neb_W2/prod_essentials/neb_warm.traj method=PBE_U0_ONCV energy=-124948.0992431663 pbc="T T T"
Fe       0.00439334       0.00408418       0.00147221       0.06500000      -0.00402326      -0.00413151      -0.00250580
Fe       2.23145822       2.71432897       1.68812794       0.06500000      -0.00624572       0.01176820       0.00442950
S        0.93123526       2.03584214      -0.00162652       0.00000000      -0.00316426      -0.00219084      -0.00021134
S        3.52792093       3.39576708       0.00008246       0.00000000      -0.00059187       0.00025428      -0.00047540
S        1.30584591       4.74502393       1.69224228       0.00000000       0.00113771      -0.00255413       0.00420144
S        3.15046809       0.68156549       1.69240409       0.00000000      -0.00363374       0.00487944      -0.00323393
Fe       0.00559704      -0.00103175       3.38407302       0.06500000      -0.00775830      -0.00254899       0.00558855
Fe       2.20547265       2.70000730       5.06308861       0.06500000       0.00410194       0.01484272      -0.00033244
S        0.92001063       2.02739554       3.36888177       0.00000000      -0.00110635       0.00358103      -0.01140618
S        3.52816891       3.38242158       3.38993532       0.00000000      -0.00367668       0.00360289      -0.01323784
S        1.29015444       4.76369379       5.05704895       0.00000000       0.03302762       0.02996235       0.00678926
S        3.14308124       0.67697201       5.07454052       0.00000000      -0.00585749       0.00246800      -0.00175066
Fe       0.00229523       0.00155958       6.77686598       0.06500000      -0.00244049       0.00543711      -0.00171030
Fe       2.21510113       2.72968106       8.47407412       0.06500000      -0.00007945       0.01175611       0.00513552
S        0.90423113       2.03091494       6.77469362       0.00000000      -0.01630414       0.00138994      -0.00462336
S        3.43813387       3.33836497       6.73816450       0.00000000      -0.02585373      -0.06714847       0.00474446
S        1.30349307       4.78500364       8.49091865       0.00000000       0.00739012       0.01230376      -0.00481028
S        3.14716129       0.69517907       8.47101887       0.00000000      -0.00164885       0.00053428      -0.00272048
Fe       0.00762228       0.01077906      10.16546507       0.06500000      -0.00344734      -0.00490078      -0.00957145
Fe       2.23200986       2.72024245      11.85482258       0.06500000      -0.00611126       0.01046130      -0.00846613
S        0.92858433       2.03840631      10.16901083       0.00000000      -0.00169461       0.00154858       0.01031269
S        3.52949112       3.39807804      10.15351879       0.00000000       0.00044326      -0.00078342       0.01646457
S        1.30578821       4.74975623      11.85739444       0.00000000      -0.00034401      -0.00104824      -0.00733793
S        3.15118494       0.68807827      11.85873487       0.00000000      -0.00135831       0.00333961      -0.00070988
Fe       0.00405907       5.42972841       0.00223154       0.06500000      -0.00021469       0.00766780      -0.00309227
Fe       2.22659789       8.14055399       1.69663645       0.06500000      -0.00276548      -0.00423024       0.00219495
S        0.92609188       7.46183001       0.00434290       0.00000000      -0.00687744       0.00764955      -0.00225331
S        3.52484688       8.82321482       0.00497706       0.00000000      -0.00008073      -0.00079036      -0.00216718
S        1.30463784      10.17151137       1.69131015       0.00000000      -0.00065666       0.00199338      -0.00451357
S        3.14540778       6.10878446       1.69535823       0.00000000      -0.01201836       0.00502111      -0.01250225
Fe       0.00177350       5.42813531       3.36992915       0.06500000      -0.00097908       0.01155351      -0.00953776
Fe       2.21129936       8.14140753       5.07565791       0.06500000      -0.00537181       0.00398392      -0.01019751
S        0.91181616       7.46704638       3.38257242       0.00000000      -0.01044562       0.01031295       0.00101636
S        3.51863486       8.81910412       3.38966109       0.00000000       0.00054070       0.00758167      -0.00714047
S        1.30234632      10.16735330       5.08464214       0.00000000      -0.00634600       0.01152137      -0.00635268
S        3.07417020       6.10574399       5.03584376       0.00000000      -0.00725540       0.04769628      -0.01322575
Fe       0.00089760       5.43165534       6.77595905       0.06500000       0.00211936       0.00780793      -0.00063738
Fe       2.20558720       8.15718791       8.49265908       0.06500000       0.00644987      -0.01243180      -0.01178491
S        0.91426515       7.46857021       6.78113617       0.00000000      -0.00496429       0.00619687      -0.00538158
S        3.55766675       8.81084502       6.78285948       0.00000000       0.00658254       0.00440379      -0.00902997
S        1.30119912      10.18120987       8.46865760       0.00000000      -0.00389599       0.00598990       0.00105235
S        3.06826207       6.13787432       8.53430258       0.00000000       0.00444209      -0.00901532      -0.01703819
Fe       0.00130720       5.43613282      10.18242442       0.06500000      -0.00373864       0.00755467       0.00301539
Fe       2.22587515       8.14670582      11.86260884       0.06500000      -0.00205020      -0.00634703      -0.01215489
S        0.90633824       7.47887588      10.17836509       0.00000000      -0.00398110       0.00494372      -0.01214075
S        3.51645447       8.83284902      10.17046938       0.00000000       0.00260093       0.00114414      -0.00274517
S        1.30470171      10.17814024      11.86072211       0.00000000       0.00103975       0.00189362       0.00211602
S        3.14515330       6.11512011      11.86238483       0.00000000      -0.01105497       0.00258653       0.00485270
Fe       4.44843268       0.00467786       0.00187676       0.06500000      -0.00553918      -0.00409500      -0.00273385
Fe       6.66886252       2.71311822       1.69091912       0.06500000      -0.00270120       0.00934956       0.01456324
S        5.37123100       2.03546030      -0.00025484       0.00000000      -0.00173164       0.00342934      -0.00060370
S        7.96907700       3.39645109       0.00053057       0.00000000      -0.00252251      -0.00463441      -0.00034581
S        5.74971992       4.74516991       1.69124304       0.00000000       0.00648689       0.00042629      -0.01330752
S        7.59137269       0.68008764       1.69169543       0.00000000      -0.00583666       0.00153083      -0.00775265
Fe       4.44691407       0.00101217       3.38664097       0.06500000      -0.00123824      -0.00158560       0.00479279
Fe       6.69463449       2.70600792       5.06531679       0.06500000      -0.00365457       0.01673865       0.00499977
S        5.37588778       2.02727170       3.38494338       0.00000000       0.00086955       0.00086312      -0.00669772
S        7.98819042       3.38570442       3.36703457       0.00000000       0.00478739       0.00125984      -0.00027279
S        5.83338272       4.73038999       5.01412930       0.00000000      -0.00261790       0.01047159      -0.00519928
S        7.59899941       0.67450705       5.07573637       0.00000000       0.00339257      -0.00595905      -0.01006227
Fe       4.45285288       0.03939009       6.77500277       0.06500000       0.00857720       0.01177462      -0.00064869
Fe       6.69012326       2.71441726       8.48050755       0.06500000      -0.00278708       0.01561560      -0.00797865
S        5.42467588       2.04275450       6.76764785       0.00000000       0.03800579      -0.01679496      -0.00044686
S        7.98385820       3.39752564       6.77490428       0.00000000       0.01086882       0.00833449      -0.00366099
S        5.82603972       4.73968725       8.52545597       0.00000000      -0.01136710       0.00983370      -0.01400351
S        7.59654582       0.68188908       8.47340549       0.00000000       0.00736981      -0.00783364       0.00621204
Fe       4.44665239       0.01225020      10.16482542       0.06500000       0.00039235      -0.00265364      -0.01031861
Fe       6.67006028       2.71801204      11.85613867       0.06500000      -0.00223969       0.00945935      -0.01823349
S        5.37573676       2.03751225      10.16231968       0.00000000       0.00402326      -0.00131949       0.00383017
S        7.98924638       3.39525214      10.17656081       0.00000000      -0.00045174      -0.00182703      -0.00271380
S        5.74996057       4.75010039      11.85936546       0.00000000       0.00761432       0.00174784       0.00992292
S        7.59277628       0.68640230      11.85876515       0.00000000      -0.00406209       0.00005965       0.00514632
Fe       4.44862181       5.42996908       0.00260429       0.06500000      -0.00246183       0.00582792      -0.00296680
Fe       6.66311227       8.14024828       1.69743244       0.06500000       0.00187768      -0.00893870       0.00615985
S        5.36890299       7.46467021       0.00353718       0.00000000      -0.01039908      -0.00161902      -0.00246929
S        7.96325560       8.82276722       0.00360312       0.00000000       0.00016172       0.00940792      -0.00238444
S        5.74507866      10.17149281       1.69520685       0.00000000      -0.00397210       0.00197512      -0.00699186
S        7.58737438       6.11279835       1.69465440       0.00000000      -0.00479356       0.00168999      -0.00072377
Fe       4.44989879       5.42101662       3.42137787       0.06500000       0.00081427       0.01382559       0.00785523
Fe       6.65987479       8.15420211       5.08302036       0.06500000      -0.00079396      -0.00683888      -0.00618505
S        5.35971934       7.46680640       3.40012625       0.00000000       0.00421944       0.01379423      -0.00983164
S        7.97070384       8.82189801       3.38600874       0.00000000      -0.00431277       0.00101584      -0.00788197
S        5.74929190      10.18204454       5.07697716       0.00000000       0.00224200       0.00746057       0.00599221
S        7.57384781       6.09106220       5.07226154       0.00000000      -0.00065255       0.00105518       0.00745209
Fe       6.66024284       8.16046278       8.47381206       0.06500000      -0.00175838      -0.00813034      -0.00050059
S        5.36718448       7.51703321       6.78155216       0.00000000      -0.02197342      -0.01802729      -0.00487404
S        7.96548761       8.81968106       6.77743732       0.00000000       0.00221526       0.01401380      -0.00148944
S        5.74940112      10.18901411       8.47583872       0.00000000       0.00433334       0.00615908      -0.00993449
S        7.57347840       6.09375794       8.48331310       0.00000000      -0.01028467      -0.00149433      -0.01745908
Fe       4.44588251       5.43464678      10.12755062       0.06500000       0.00426700       0.00485039       0.00175298
Fe       6.66178063       8.14543147      11.85806262       0.06500000       0.00380600      -0.00972957      -0.01154374
S        5.35843974       7.47737531      10.15412799       0.00000000       0.00493318       0.00963161       0.00667664
S        7.97052348       8.83105646      10.17093550       0.00000000      -0.00441587      -0.00019977       0.00129764
S        5.74441076      10.17698785      11.85662052       0.00000000      -0.00214379       0.00167713       0.00208079
S        7.58628890       6.11698901      11.85880019       0.00000000      -0.00498485       0.00075359      -0.00272923
H        3.66554112       4.73357899       6.47147866       0.00000000       0.10659974      -0.24986289       0.24729539
96
Lattice="8.886 0.0 0.0 0.0 10.85 0.0 0.0 0.0 13.548" Properties=species:S:1:pos:R:3:initial_magmoms:R:1:forces:R:3 spacegroup="P n n m" unit_cell=primitive nspins=2 nkpts=8 fermi_level=12.476 natoms=96 mineral=marcasite rc=0.5 image_index=4 U_eV=0.0 nspin=2 source_file=results/dft_datasets/2026-06-03/marc_warm_neb_W2/prod_essentials/neb_warm.traj method=PBE_U0_ONCV energy=-124947.99563391745 pbc="T T T"
Fe       0.00507855       0.00237993       0.00287403       0.06500000      -0.00131975      -0.00355172      -0.00371087
Fe       2.23212658       2.71133902       1.68920790       0.06500000      -0.00354195       0.00913410       0.00707645
S        0.93201539       2.03432016      -0.00128301       0.00000000      -0.00366536      -0.00534867       0.00179206
S        3.52814696       3.39429009       0.00066761       0.00000000       0.00373607      -0.00028051       0.00226566
S        1.30703906       4.74214153       1.69294279       0.00000000       0.00295111      -0.00285624       0.00380395
S        3.15050013       0.67847344       1.69468733       0.00000000      -0.00086980       0.00115237      -0.00306193
Fe       0.00686569      -0.00671088       3.38575821       0.06500000      -0.00230628      -0.00339668       0.00357898
Fe       2.20750855       2.69601281       5.06772580       0.06500000       0.00393893       0.01241097       0.00179592
S        0.92144064       2.02243581       3.37138128       0.00000000       0.00009642      -0.00309149      -0.00849107
S        3.53180035       3.37626907       3.38991107       0.00000000       0.00056796      -0.00521677      -0.00952439
S        1.27547711       4.74572178       5.05755138       0.00000000       0.00508307       0.00430403       0.00680520
S        3.14541996       0.67518974       5.07826852       0.00000000      -0.00257445      -0.00159691       0.00347099
Fe       0.00566995      -0.00123954       6.77812961       0.06500000       0.00242764       0.00227183      -0.00065049
Fe       2.21791092       2.72859932       8.47137875       0.06500000       0.00264978       0.01290668       0.00375047
S        0.91338023       2.03129861       6.77661399       0.00000000      -0.00615908      -0.00406646      -0.00017535
S        3.45915140       3.38217650       6.73639344       0.00000000      -0.00159486      -0.00114543       0.00036638
S        1.30509505       4.78173881       8.49195855       0.00000000       0.00781641       0.00699289      -0.00245695
S        3.14788564       0.69726829       8.47027482       0.00000000      -0.00183834       0.00003317      -0.00548853
Fe       0.00785335       0.01051049      10.16646379       0.06500000      -0.00118554      -0.00266881      -0.00497123
Fe       2.23273939       2.71962174      11.85443551       0.06500000      -0.00501674       0.00866205      -0.00853246
S        0.92983843       2.03773598      10.16728716       0.00000000      -0.00001388       0.00035327       0.00719703
S        3.53095951       3.39727788      10.15162003       0.00000000       0.00179232      -0.00468969       0.01321264
S        1.30684062       4.74837330      11.85713489       0.00000000      -0.00170413      -0.00095902      -0.00162725
S        3.15157273       0.68779024      11.85911050       0.00000000      -0.00012496       0.00094154       0.00204711
Fe       0.00531039       5.42806832       0.00332391       0.06500000       0.00144393       0.00376718      -0.00216744
Fe       2.22788238       8.13719758       1.70095469       0.06500000       0.00028102      -0.00421764       0.00298454
S        0.92710900       7.46015293       0.00662607       0.00000000      -0.00391245       0.00550370       0.00340054
S        3.52499321       8.82187850       0.00760046       0.00000000       0.00192293      -0.00171081       0.00244692
S        1.30504482      10.16786296       1.69343512       0.00000000       0.00187408      -0.00033939      -0.00144316
S        3.14687685       6.10529189       1.70020905       0.00000000      -0.00499000       0.00232788      -0.00244538
Fe       0.00427436       5.42429077       3.37240239       0.06500000      -0.00034427       0.00486041      -0.00573099
Fe       2.22224918       8.12875698       5.09153642       0.06500000       0.00206588      -0.00490129       0.00762255
S        0.91930995       7.45835793       3.38964884       0.00000000      -0.00391450       0.00135111       0.00574384
S        3.52142788       8.81227694       3.39575729       0.00000000       0.00667818      -0.00085952      -0.00064946
S        1.30585552      10.15996564       5.08579039       0.00000000      -0.00013010       0.00055536      -0.00634317
S        3.08908635       6.06714325       5.05492083       0.00000000      -0.00204994       0.00303956       0.00296037
Fe       0.00002926       5.42757242       6.77727264       0.06500000      -0.00053916       0.00380420       0.00491646
Fe       2.20625419       8.15700598       8.49856035       0.06500000       0.00563303      -0.01598969      -0.00486067
S        0.91586559       7.46444539       6.78779376       0.00000000      -0.00367282       0.00198206       0.00180749
S        3.55924613       8.81200588       6.79220738       0.00000000       0.01326149      -0.00064535      -0.00207000
S        1.30259318      10.18187717       8.47117531       0.00000000      -0.00350673       0.00465421       0.00411299
S        3.06863830       6.13836012       8.53978794       0.00000000       0.00132000      -0.01385979      -0.01531632
Fe       0.00193573       5.43545566      10.18368070       0.06500000      -0.00391116       0.00309869       0.00265055
Fe       2.22663607       8.14605113      11.86514853       0.06500000      -0.00181931      -0.00804627      -0.00873481
S        0.90639118       7.47830162      10.18108596       0.00000000      -0.00424566       0.00276651      -0.00839902
S        3.51731228       8.83383557      10.17290264       0.00000000       0.00330310      -0.00108038       0.00087623
S        1.30495888      10.17754059      11.86163586       0.00000000       0.00052116       0.00085129       0.00247983
S        3.14606800       6.11461608      11.86435923       0.00000000      -0.00959716      -0.00021237       0.00828667
Fe       4.44870232       0.00299745       0.00327534       0.06500000      -0.00343988      -0.00400398      -0.00270480
Fe       6.66979593       2.71067745       1.69116481       0.06500000      -0.00012418       0.00499797       0.01107734
S        5.37149661       2.03389387       0.00009651       0.00000000      -0.00287115       0.00076593       0.00252457
S        7.96972650       3.39503145       0.00090742       0.00000000      -0.00036381      -0.00451923       0.00348667
S        5.75032192       4.74287674       1.69214184       0.00000000       0.00643316      -0.00097188      -0.00651569
S        7.59194515       0.67731086       1.69337958       0.00000000      -0.00430171      -0.00032602      -0.00469278
Fe       4.44775744      -0.00296694       3.38897744       0.06500000       0.00214276      -0.00239884       0.00713327
Fe       6.69488299       2.70418965       5.06584460       0.06500000      -0.00146861       0.01237601       0.00841188
S        5.37660898       2.02381476       3.38521786       0.00000000       0.00011159      -0.00062195      -0.00302722
S        7.98708938       3.38009644       3.36741138       0.00000000       0.00262895       0.00007893       0.00052708
S        5.83357933       4.72516789       5.01534584       0.00000000      -0.00286909       0.00503962      -0.00106598
S        7.59908261       0.67237630       5.07855382       0.00000000       0.00312312      -0.00374121      -0.00744257
Fe       4.45087497       0.03431830       6.77667747       0.06500000       0.00601098       0.00632980       0.00139919
Fe       6.68961783       2.71568512       8.48125899       0.06500000      -0.00521857       0.01711378      -0.00572456
S        5.40250931       2.05117734       6.76776510       0.00000000       0.00984733      -0.00307427      -0.00082584
S        7.98269744       3.39268315       6.77610435       0.00000000       0.00897572       0.00350621      -0.00025094
S        5.82683172       4.73795199       8.52860668       0.00000000      -0.01414364       0.00823344      -0.01770333
S        7.59621816       0.68306840       8.47227418       0.00000000       0.00655940      -0.00685019       0.00417650
Fe       4.44741260       0.01263474      10.16574163       0.06500000       0.00115211      -0.00208799      -0.00969563
Fe       6.67060915       2.71744512      11.85660152       0.06500000      -0.00096853       0.00713481      -0.01489363
S        5.37585368       2.03794655      10.16305127       0.00000000       0.00264978      -0.00230808       0.00465293
S        7.98950760       3.39379621      10.17654189       0.00000000      -0.00148044      -0.00345171      -0.00398084
S        5.75070441       4.74934963      11.86068716       0.00000000       0.00786783       0.00063069       0.01178954
S        7.59331234       0.68603654      11.85967233       0.00000000      -0.00411531      -0.00191521       0.00532295
Fe       4.44967798       5.42828515       0.00416311       0.06500000      -0.00130843       0.00266983      -0.00041240
Fe       6.66518291       8.13757925       1.69970733       0.06500000       0.00474137      -0.00895567       0.00420992
S        5.36917607       7.46327080       0.00529912       0.00000000      -0.00717441      -0.00315783      -0.00054764
S        7.96385749       8.82162317       0.00534046       0.00000000       0.00348590       0.00703145      -0.00194118
S        5.74555953      10.16879862       1.69697980       0.00000000       0.00010207       0.00034324      -0.00676689
S        7.58897015       6.11060984       1.69592592       0.00000000      -0.00128787       0.00096005      -0.00131435
Fe       4.45681334       5.41341166       3.41959160       0.06500000       0.00615496       0.00385074       0.01430973
Fe       6.66110659       8.15169934       5.08525451       0.06500000       0.00368388      -0.00516946      -0.00054919
S        5.36241645       7.46142662       3.40074250       0.00000000       0.01091999       0.00982084      -0.00768400
S        7.97133476       8.81814712       3.39008865       0.00000000      -0.00267780       0.00082070      -0.00526588
S        5.74949261      10.17980975       5.08005003       0.00000000       0.00633777       0.00955422       0.00683965
S        7.57228211       6.08862824       5.07566610       0.00000000       0.00084075       0.00321002       0.00968303
Fe       6.66225359       8.15983043       8.47575836       0.06500000      -0.00018718      -0.01243488      -0.00523194
S        5.36748168       7.51653890       6.78551107       0.00000000      -0.02365261      -0.01829468      -0.00551604
S        7.96682272       8.81845278       6.77867089       0.00000000       0.00314574       0.01565699       0.00207385
S        5.75051993      10.18951660       8.47587395       0.00000000       0.00694378       0.00587626      -0.00861757
S        7.57439150       6.09308365       8.48534109       0.00000000      -0.01089222      -0.00220986      -0.01351912
Fe       4.44793177       5.43456776      10.12722199       0.06500000       0.00215201      -0.00054430       0.00096802
Fe       6.66225629       8.14497466      11.85965143       0.06500000       0.00440867      -0.01060503      -0.00917164
S        5.35968666       7.47758527      10.15531178       0.00000000       0.00531576       0.00789457       0.00749425
S        7.97137659       8.83119647      10.17241145       0.00000000      -0.00632903      -0.00154266       0.00224457
S        5.74493119      10.17675545      11.85770407       0.00000000      -0.00124210      -0.00068854       0.00340054
S        7.58683670       6.11663465      11.85976712       0.00000000      -0.00219161      -0.00105647       0.00096416
H        3.55859245       4.93260756       6.27724726       0.00000000      -0.01224231      -0.03995983       0.03177164
96
Lattice="8.886 0.0 0.0 0.0 10.85 0.0 0.0 0.0 13.548" Properties=species:S:1:pos:R:3:initial_magmoms:R:1:forces:R:3 spacegroup="P n n m" unit_cell=primitive nspins=2 nkpts=8 fermi_level=12.476 natoms=96 mineral=marcasite rc=0.625 image_index=5 U_eV=0.0 nspin=2 source_file=results/dft_datasets/2026-06-03/marc_warm_neb_W2/prod_essentials/neb_warm.traj method=PBE_U0_ONCV energy=-124948.12662366893 pbc="T T T"
Fe       0.00550906       0.00194647       0.00359192       0.06500000       0.00061758      -0.00362526      -0.00324448
Fe       2.23236895       2.71039603       1.69171478       0.06500000      -0.00194015       0.00658408       0.01470671
S        0.93242493       2.03396908      -0.00012920       0.00000000      -0.00313649      -0.00832909       0.00324088
S        3.52796806       3.39371509       0.00130159       0.00000000       0.00650438      -0.00093331       0.00281613
S        1.30772922       4.74090598       1.69379914       0.00000000       0.00398315      -0.00459610       0.00302387
S        3.15051189       0.67783047       1.69603934       0.00000000       0.00019000      -0.00231734      -0.00196201
Fe       0.00742668      -0.00908980       3.38664223       0.06500000       0.00214584      -0.00627966       0.00566465
Fe       2.21252118       2.69152533       5.07305077       0.06500000       0.01336331      -0.00171698       0.01419146
S        0.92188091       2.02078633       3.37424832       0.00000000       0.00058544      -0.01044845      -0.00327713
S        3.53664758       3.37398272       3.39126060       0.00000000       0.01036540      -0.01399503      -0.00411248
S        1.26561168       4.72770023       5.06406670       0.00000000      -0.02715162      -0.04560623       0.02215520
S        3.14754634       0.66991351       5.08036119       0.00000000       0.00200315      -0.02193922       0.00928940
Fe       0.00690278      -0.00421733       6.77828741       0.06500000       0.00628738      -0.00450354      -0.00183602
Fe       2.22147178       2.71277073       8.47417408       0.06500000       0.01540914      -0.01867289      -0.00095594
S        0.91750573       2.02878074       6.77845528       0.00000000       0.00406414      -0.01745805       0.00951154
S        3.48500067       3.34680861       6.76368833       0.00000000       0.07073928      -0.07879763       0.06093206
S        1.30895120       4.77416937       8.49078754       0.00000000       0.02030940      -0.01290077      -0.00443798
S        3.14676322       0.68776758       8.47256867       0.00000000      -0.00617965      -0.02657621       0.00156503
Fe       0.00640235       0.00837643      10.16775534       0.06500000      -0.00322134      -0.00530701      -0.00174964
Fe       2.23279368       2.71880359      11.85540818       0.06500000      -0.00432922       0.00637608      -0.00669901
S        0.92560019       2.03579038      10.16937219       0.00000000      -0.00840571      -0.00574230       0.01442929
S        3.53250794       3.39364730      10.15121366       0.00000000       0.00636271      -0.01566239       0.01524150
S        1.30743355       4.74717804      11.85693018       0.00000000      -0.00095722      -0.00359389       0.00166093
S        3.15118790       0.68690107      11.85913291       0.00000000      -0.00021186      -0.00151952       0.00305447
Fe       0.00580854       5.42736531       0.00402141       0.06500000       0.00235256      -0.00008716      -0.00142439
Fe       2.22828832       8.13654619       1.70182882       0.06500000       0.00177663      -0.00499848       0.00323059
S        0.92762427       7.45947586       0.00692179       0.00000000      -0.00215047       0.00245000       0.00668590
S        3.52502263       8.82148501       0.00788689       0.00000000       0.00249448      -0.00291075       0.00542528
S        1.30508804      10.16700474       1.69423375       0.00000000       0.00256005      -0.00308532       0.00128401
S        3.14834123       6.10426350       1.70110507       0.00000000       0.00244409      -0.00155192       0.00470563
Fe       0.00713449       5.42174800       3.37525428       0.06500000       0.00618762      -0.00497457       0.00429708
Fe       2.23012305       8.12049626       5.10003299       0.06500000       0.01908890      -0.02372074       0.03374162
S        0.92231921       7.45399409       3.39085293       0.00000000       0.00239215      -0.01094107       0.00817534
S        3.52381020       8.81087679       3.39614136       0.00000000       0.01278378      -0.00530007       0.00130612
S        1.30675559      10.15635971       5.08565156       0.00000000       0.00350878      -0.01060914      -0.00608503
S        3.09498818       6.05746871       5.03792228       0.00000000       0.00936190      -0.02735062      -0.03908617
Fe       0.00134388       5.42265560       6.77747101       0.06500000       0.00331672      -0.00887159       0.01326895
Fe       2.20580084       8.15352733       8.50054251       0.06500000       0.00632671      -0.03429672      -0.00184322
S        0.91652836       7.46058921       6.79139769       0.00000000      -0.00336043      -0.00534635       0.01288611
S        3.56019441       8.81153677       6.79786648       0.00000000       0.01833222      -0.00381500       0.01160596
S        1.30270047      10.17870367       8.47327828       0.00000000      -0.00540574      -0.00238676       0.01168541
S        3.06971449       6.13196440       8.53440630       0.00000000       0.00303416      -0.03453094      -0.03424324
Fe       0.00251064       5.43327209      10.18385448       0.06500000      -0.00121202      -0.00367539      -0.00074716
Fe       2.22684828       8.14489636      11.86570828       0.06500000      -0.00194324      -0.01084723      -0.00678874
S        0.90690138       7.47580910      10.18170334       0.00000000      -0.00259553      -0.00161800      -0.00555384
S        3.51784388       8.83144404      10.17326321       0.00000000       0.00311335      -0.00545511       0.00357666
S        1.30466334      10.17650203      11.86184574       0.00000000      -0.00058133      -0.00185814       0.00321954
S        3.14646909       6.11343229      11.86335861       0.00000000      -0.00927705      -0.00438399       0.00942155
Fe       4.44869857       0.00234113       0.00394255       0.06500000      -0.00181674      -0.00464290      -0.00168639
Fe       6.67034716       2.71042469       1.69145998       0.06500000       0.00148481       0.00156683       0.00639356
S        5.37130381       2.03332640       0.00042193       0.00000000      -0.00366382      -0.00194890       0.00520237
S        7.96983556       3.39486368       0.00108668       0.00000000       0.00096365      -0.00402172       0.00610560
S        5.75078413       4.74231047       1.69248982       0.00000000       0.00545871      -0.00293311       0.00180517
S        7.59229430       0.67695709       1.69394962       0.00000000      -0.00278990      -0.00184605      -0.00130149
Fe       4.44826321      -0.00460540       3.38968923       0.06500000       0.00321542      -0.00474549       0.01047442
Fe       6.69252454       2.70490334       5.06502250       0.06500000      -0.00460690       0.00860497       0.00849313
S        5.37759462       2.02376537       3.38552442       0.00000000      -0.00042243      -0.00031393       0.00029259
S        7.98358001       3.37754154       3.37005422       0.00000000      -0.00571325      -0.00437885       0.00772796
S        5.82815736       4.72714158       5.02728202       0.00000000      -0.01647949       0.00798790       0.02485331
S        7.59664782       0.67275530       5.08147040       0.00000000      -0.00467375       0.00070808      -0.00000566
Fe       4.44932351       0.01874086       6.77794528       0.06500000       0.00022909      -0.03458854       0.00443078
Fe       6.68816782       2.71567385       8.48316677       0.06500000      -0.01048830       0.02357007      -0.00116728
S        5.36885464       2.05402038       6.77093443       0.00000000      -0.08374880       0.01025767       0.00696718
S        7.97884709       3.38873753       6.77677874       0.00000000      -0.00132052      -0.00867902       0.00408703
S        5.82650964       4.73652682       8.53035728       0.00000000      -0.01228422       0.00807069      -0.01525436
S        7.59434660       0.68308292       8.47125673       0.00000000       0.00297888      -0.00602409       0.00234845
Fe       4.44778378       0.00990902      10.16690489       0.06500000       0.00184477      -0.00806606      -0.00828847
Fe       6.67006032       2.71686013      11.85741829       0.06500000      -0.00060318       0.00524505      -0.00991083
S        5.37529501       2.03683025      10.16457557       0.00000000       0.00126370      -0.00601690       0.00724665
S        7.98774641       3.39168523      10.17663622       0.00000000      -0.00499488      -0.01039548      -0.00577933
S        5.75042853       4.74864005      11.86036915       0.00000000       0.00819308      -0.00070088       0.01358031
S        7.59263234       0.68524714      11.86041935       0.00000000      -0.00500799      -0.00450997       0.00651518
Fe       4.45019974       5.42747797       0.00389937       0.06500000       0.00038155      -0.00113720       0.00255465
Fe       6.66681506       8.13691118       1.70020336       0.06500000       0.00812829      -0.01063460       0.00323265
S        5.36939013       7.46246627       0.00537272       0.00000000      -0.00571453      -0.00562737       0.00020852
S        7.96448643       8.82122427       0.00528084       0.00000000       0.00575850       0.00479562      -0.00160308
S        5.74638238      10.16849908       1.69716560       0.00000000       0.00333755      -0.00193655      -0.00572122
S        7.59043052       6.10981234       1.69651938       0.00000000       0.00258447      -0.00167482      -0.00004705
Fe       4.46022822       5.41282251       3.41511182       0.06500000       0.01060014      -0.00107035       0.00486556
Fe       6.66279489       8.15052050       5.08500608       0.06500000       0.00886594      -0.00723303       0.00406414
S        5.36595921       7.45971382       3.39868321       0.00000000       0.02120594       0.00599633      -0.01017257
S        7.97046679       8.81759469       3.39216488       0.00000000      -0.00421687       0.00040238      -0.00105338
S        5.74934164      10.17733567       5.08233382       0.00000000       0.00729473       0.00683682       0.01122364
S        7.57037665       6.08546573       5.07623444       0.00000000      -0.00211242      -0.00130226       0.00994297
Fe       6.66461390       8.15777701       8.47663515       0.06500000       0.00323522      -0.02319058      -0.01172372
S        5.36721585       7.51295927       6.78632246       0.00000000      -0.02613526      -0.02370968      -0.00600584
S        7.96665914       8.81693730       6.77842699       0.00000000       0.00252251       0.01437298       0.00512858
S        5.75061326      10.18649428       8.47517347       0.00000000       0.00874175      -0.00052296      -0.00809640
S        7.57540777       6.09149392       8.48663325       0.00000000      -0.01057289      -0.00474677      -0.00650978
Fe       4.44969698       5.43228933      10.12540818       0.06500000       0.00443695      -0.00741892      -0.01014660
Fe       6.66260685       8.14398742      11.85975072       0.06500000       0.00518926      -0.01204870      -0.00769660
S        5.36023186       7.47533933      10.15501614       0.00000000       0.00532424       0.00242326       0.01029058
S        7.97162534       8.82963235      10.17231674       0.00000000      -0.00723766      -0.00427369       0.00372013
S        5.74548304      10.17587118      11.85847749       0.00000000       0.00033347      -0.00380266       0.00475294
S        7.58736318       6.11571762      11.85931623       0.00000000       0.00125418      -0.00289712       0.00140716
H        3.53036159       5.18858199       6.16534467       0.00000000      -0.09016884       0.62392575      -0.25769653
96
Lattice="8.886 0.0 0.0 0.0 10.85 0.0 0.0 0.0 13.548" Properties=species:S:1:pos:R:3:initial_magmoms:R:1:forces:R:3 spacegroup="P n n m" unit_cell=primitive nspins=2 nkpts=8 fermi_level=12.476 natoms=96 mineral=marcasite rc=0.75 image_index=6 U_eV=0.0 nspin=2 source_file=results/dft_datasets/2026-06-03/marc_warm_neb_W2/prod_essentials/neb_warm.traj method=PBE_U0_ONCV energy=-124948.26497464396 pbc="T T T"
Fe       0.00592105       0.00062417       0.00472443       0.06500000       0.00049057      -0.00393199      -0.00283978
Fe       2.23247686       2.70900500       1.69498093       0.06500000      -0.00188719       0.00758218       0.01084337
S        0.93266135       2.03256540       0.00189021       0.00000000      -0.00248549      -0.00991160       0.00216975
S        3.52781168       3.39202724       0.00241104       0.00000000       0.00679903      -0.00201292       0.00116754
S        1.30748985       4.73892197       1.69562008       0.00000000       0.00309432      -0.00564177       0.00294571
S        3.15065342       0.67702789       1.69757136       0.00000000       0.00022086      -0.00119248      -0.00434619
Fe       0.00725457      -0.00976353       3.38853748       0.06500000       0.00128169      -0.00190853       0.00557107
Fe       2.21787039       2.69156690       5.07729820       0.06500000       0.00814346       0.00257702       0.01134551
S        0.92262041       2.01956442       3.37862507       0.00000000       0.00246929      -0.00655143      -0.00301822
S        3.54020222       3.37371861       3.39232423       0.00000000       0.00168896      -0.01058189      -0.00291537
S        1.26229629       4.71796453       5.07023515       0.00000000      -0.00791000      -0.02185361       0.01947585
S        3.14867091       0.66618205       5.08277365       0.00000000      -0.00264824      -0.01845126       0.00802030
Fe       0.00749262      -0.00618462       6.77924881       0.06500000       0.00358772      -0.00113463      -0.00253819
Fe       2.22410373       2.70148542       8.47812548       0.06500000       0.01179082      -0.00085309      -0.00713147
S        0.92096453       2.02590423       6.78082108       0.00000000       0.00169744      -0.01922157       0.01053947
S        3.50193056       3.33186963       6.78014876       0.00000000       0.04361851      -0.02604605       0.01990882
S        1.31137640       4.76670344       8.49044547       0.00000000       0.01803809      -0.00843528      -0.00268886
S        3.14577655       0.67798785       8.47547401       0.00000000      -0.00797042      -0.02223181       0.00190570
Fe       0.00539952       0.00468850      10.16950144       0.06500000      -0.00200777      -0.00665633      -0.00285984
Fe       2.23279891       2.71633434      11.85695626       0.06500000      -0.00415645       0.00391270      -0.00639716
S        0.92273422       2.03192415      10.17159684       0.00000000      -0.00222169      -0.00851421       0.01269199
S        3.53408909       3.38878912      10.15249247       0.00000000       0.00585723      -0.01608688       0.01851477
S        1.30797907       4.74464584      11.85756172       0.00000000      -0.00066926      -0.00548005       0.00154986
S        3.15085781       0.68431059      11.85999893       0.00000000       0.00032344      -0.00381526       0.00281099
Fe       0.00629855       5.42557424       0.00490314       0.06500000       0.00141231      -0.00223120      -0.00267729
Fe       2.22796547       8.13603418       1.70023543       0.06500000       0.00140691      -0.00416802      -0.00064380
S        0.92795847       7.45777924       0.00655086       0.00000000      -0.00220832       0.00080527       0.00406543
S        3.52515745       8.82013296       0.00759720       0.00000000       0.00254693      -0.00382400       0.00284313
S        1.30475259      10.16639490       1.69540844       0.00000000       0.00220112      -0.00195352       0.00034041
S        3.14958547       6.10355526       1.69758298       0.00000000       0.00186636      -0.00114800      -0.00273668
Fe       0.00646275       5.41866414       3.37782596       0.06500000       0.00032602      -0.00460356       0.00053248
Fe       2.22964197       8.12098659       5.09361230       0.06500000      -0.00016918      -0.00463467      -0.00029825
S        0.91839004       7.45411164       3.38726315       0.00000000      -0.01146738      -0.00100324      -0.00216770
S        3.52482080       8.81379810       3.39197239       0.00000000       0.00904411       0.00337252      -0.00807738
S        1.30608379      10.15757426       5.08730839       0.00000000       0.00110917      -0.00019772      -0.00259681
S        3.08073998       6.08835031       4.98927936       0.00000000      -0.03136463       0.05542784      -0.08385576
Fe       0.00323850       5.41822390       6.77783264       0.06500000       0.00388134      -0.00677100       0.01520885
Fe       2.20601899       8.14797209       8.50006049       0.06500000       0.00663730      -0.03862337      -0.00938350
S        0.91833580       7.45675458       6.79037773       0.00000000      -0.00297477      -0.00226283       0.00384149
S        3.56086533       8.80570530       6.79800853       0.00000000       0.01870658      -0.01302804      -0.00151541
S        1.30267290      10.17371792       8.47516157       0.00000000      -0.00687410      -0.00411145       0.00971414
S        3.07121871       6.12402408       8.52685527       0.00000000       0.00213042      -0.03749594      -0.04204859
Fe       0.00319882       5.42951596      10.18426480       0.06500000       0.00025248      -0.00538749      -0.00301128
Fe       2.22721283       8.14220761      11.86558466       0.06500000      -0.00196509      -0.01233384      -0.00967917
S        0.90806786       7.47152242      10.18176597       0.00000000      -0.00056179      -0.00227671      -0.00895592
S        3.51855730       8.82690650      10.17318665       0.00000000       0.00180003      -0.00680931       0.00139688
S        1.30453152      10.17397462      11.86262156       0.00000000       0.00080398      -0.00358772       0.00332778
S        3.14704075       6.11069740      11.86145940       0.00000000      -0.01109894      -0.00593231       0.00904591
Fe       4.44871827       0.00078706       0.00511776       0.06500000      -0.00088163      -0.00519723      -0.00196869
Fe       6.67094490       2.70928196       1.69248838       0.06500000       0.00019515       0.00050882       0.00614134
S        5.37114163       2.03171209       0.00154795       0.00000000      -0.00246646      -0.00241015       0.00551322
S        7.97018943       3.39345938       0.00196058       0.00000000       0.00110557      -0.00511341       0.00618967
S        5.75233494       4.74086689       1.69162247       0.00000000       0.00465035      -0.00443952       0.00286935
S        7.59280734       0.67615719       1.69505267       0.00000000      -0.00177817      -0.00139045      -0.00069086
Fe       4.44855385      -0.00538004       3.39056057       0.06500000       0.00160360      -0.00224714       0.00989669
Fe       6.68890102       2.70513143       5.06638103       0.06500000      -0.00558958       0.00608863       0.01260715
S        5.37821919       2.02399191       3.38674400       0.00000000      -0.00309818       0.00010284       0.00177843
S        7.97998816       3.37597575       3.37403071       0.00000000      -0.00179849      -0.00033501       0.00839362
S        5.81886109       4.73041565       5.03752487       0.00000000      -0.01885210       0.00607037       0.01795890
S        7.59422184       0.67301628       5.08475332       0.00000000      -0.00353810       0.00168742      -0.00171621
Fe       4.44802577       0.00729624       6.77971680       0.06500000       0.00059110      -0.01892486       0.00295523
Fe       6.68660308       2.71305558       8.48518428       0.06500000      -0.00853452       0.02028575      -0.00305164
S        5.35051041       2.05099522       6.77506878       0.00000000      -0.04296879      -0.00189387       0.00719318
S        7.97563143       3.38512895       6.77808988       0.00000000       0.00208645      -0.00817379       0.00644241
S        5.82558435       4.73290355       8.53137043       0.00000000      -0.00887905       0.00918784      -0.01981858
S        7.59280769       0.68063408       8.47169205       0.00000000       0.00537515      -0.00957479       0.00557467
Fe       4.44813857       0.00543737      10.16866875       0.06500000       0.00142491      -0.00956733      -0.00943878
Fe       6.66972914       2.71470680      11.85887690       0.06500000       0.00114877       0.00307118      -0.00984064
S        5.37483237       2.03356002      10.16685783       0.00000000       0.00128838      -0.01037877       0.00583538
S        7.98635353       3.38845052      10.17731999       0.00000000      -0.00222272      -0.01188801      -0.00767063
S        5.75031699       4.74654697      11.85975787       0.00000000       0.01044896      -0.00284621       0.01346641
S        7.59211398       0.68294675      11.86179045       0.00000000      -0.00348256      -0.00582458       0.00586391
Fe       4.45064548       5.42570626       0.00192451       0.06500000       0.00051653      -0.00256982       0.00460716
Fe       6.66778487       8.13619427       1.70015861       0.06500000       0.00527488      -0.01129151       0.00155860
S        5.37003065       7.46072130       0.00517820       0.00000000      -0.00496351      -0.00662856      -0.00150435
S        7.96534315       8.81978734       0.00517173       0.00000000       0.00583795       0.00363991      -0.00193861
S        5.74727057      10.16799551       1.69762329       0.00000000       0.00382657      -0.00227183      -0.00581943
S        7.59162905       6.10829282       1.69692152       0.00000000       0.00035224      -0.00215356      -0.00016506
Fe       4.46064625       5.41569744       3.40679626       0.06500000       0.00150127       0.00477042       0.00702143
Fe       6.66386593       8.14863718       5.08508177       0.06500000       0.00709856      -0.00536152       0.00331107
S        5.36984030       7.45968111       3.39569423       0.00000000       0.01804709       0.01000313      -0.00892507
S        7.96909556       8.81771356       3.39325387       0.00000000      -0.00286832       0.00209288      -0.00502959
S        5.74907367      10.17446034       5.08460303       0.00000000       0.00728548       0.00783801       0.00868570
S        7.56777361       6.08144788       5.07716807       0.00000000      -0.00180517      -0.00111946       0.00919426
Fe       6.66670719       8.15475183       8.47811553       0.06500000       0.00125547      -0.02467076      -0.01311057
S        5.36892796       7.50898213       6.78838954       0.00000000      -0.02232952      -0.01955427      -0.00926934
S        7.96717438       8.81474156       6.77872126       0.00000000       0.00378286       0.01377083       0.00601612
S        5.75066302      10.18198781       8.47587250       0.00000000       0.00968792      -0.00230448      -0.00472389
S        7.57662060       6.08864687       8.48774267       0.00000000      -0.01229527      -0.00768734      -0.00581712
Fe       4.45116761       5.42831968      10.12365750       0.06500000       0.00402558      -0.00845482      -0.00992677
Fe       6.66322211       8.14152417      11.86001069       0.06500000       0.00594902      -0.01322267      -0.00881040
S        5.36085734       7.47135574      10.15514781       0.00000000       0.00370419      -0.00011030       0.01164710
S        7.97223206       8.82633899      10.17279253       0.00000000      -0.00576930      -0.00515712       0.00423229
S        5.74600187      10.17343131      11.85986659       0.00000000       0.00034890      -0.00633160       0.00373993
S        7.58809811       6.11324741      11.85927818       0.00000000       0.00274337      -0.00386051       0.00078470
H        3.53048565       5.40896545       6.13935915       0.00000000      -0.01961957       0.42305600      -0.01763597
96
Lattice="8.886 0.0 0.0 0.0 10.85 0.0 0.0 0.0 13.548" Properties=species:S:1:pos:R:3:initial_magmoms:R:1:forces:R:3 spacegroup="P n n m" unit_cell=primitive nspins=2 nkpts=8 fermi_level=12.476 natoms=96 mineral=marcasite rc=0.875 image_index=7 U_eV=0.0 nspin=2 source_file=results/dft_datasets/2026-06-03/marc_warm_neb_W2/prod_essentials/neb_warm.traj method=PBE_U0_ONCV energy=-124948.33308106425 pbc="T T T"
Fe       0.00690432      -0.00225534       0.00499978       0.06500000      -0.00161105      -0.00211705      -0.00288709
Fe       2.23284718       2.70779635       1.69794932       0.06500000      -0.00288144       0.00901712       0.00626989
S        0.93369410       2.02952943       0.00383247       0.00000000      -0.00409937      -0.00871553      -0.00011724
S        3.52824550       3.38876372       0.00390384       0.00000000       0.00629997       0.00000000      -0.00153032
S        1.30702567       4.73688208       1.69775136       0.00000000       0.00334938      -0.00281176       0.00119299
S        3.15150157       0.67647596       1.69784534       0.00000000      -0.00207334       0.00032447      -0.00587934
Fe       0.00670302      -0.00833507       3.38905753       0.06500000      -0.00045663       0.00101096       0.00521240
Fe       2.22166008       2.69360089       5.08079450       0.06500000       0.00086595       0.00226591       0.00678077
S        0.92308728       2.01988332       3.38247807       0.00000000       0.00164473      -0.00245977      -0.00600533
S        3.54131215       3.37534384       3.39526512       0.00000000      -0.00533118      -0.00792388      -0.00580118
S        1.26304672       4.71563290       5.07647171       0.00000000       0.00637351      -0.00580915       0.02017442
S        3.14924745       0.66547465       5.08406419       0.00000000      -0.00568985      -0.01220554       0.00609120
Fe       0.00783795      -0.00703223       6.77972581       0.06500000       0.00142285      -0.00031676      -0.00180106
Fe       2.22649059       2.69344495       8.48056507       0.06500000       0.00610380       0.01316328      -0.01158488
S        0.92375372       2.02364146       6.78288439       0.00000000      -0.00267112      -0.01646329       0.00752228
S        3.51153694       3.32764487       6.78805713       0.00000000       0.02317361       0.00258293      -0.00436908
S        1.31284688       4.75964478       8.48970436       0.00000000       0.01412564      -0.00006916      -0.00283927
S        3.14618646       0.66971129       8.47702494       0.00000000      -0.00909193      -0.01040140      -0.00280790
Fe       0.00599151      -0.00108486      10.17018100       0.06500000      -0.00167816      -0.00450226      -0.00443875
Fe       2.23376334       2.71169747      11.85851836       0.06500000      -0.00531113       0.00498357      -0.00858029
S        0.92267984       2.02606998      10.17306008       0.00000000       0.00147478      -0.00614031       0.00964858
S        3.53616155       3.38229508      10.15391650       0.00000000       0.00253177      -0.01160210       0.01613830
S        1.30911527       4.73996849      11.85804514       0.00000000      -0.00193553      -0.00480899       0.00174269
S        3.15171910       0.67939534      11.86025733       0.00000000      -0.00132900      -0.00250965       0.00274054
Fe       0.00688249       5.42200551       0.00547372       0.06500000      -0.00107009      -0.00092045      -0.00312543
Fe       2.22747175       8.13550534       1.69609309       0.06500000      -0.00026328      -0.00294417      -0.00096236
S        0.92871963       7.45427960       0.00466559       0.00000000      -0.00408291       0.00217284       0.00349336
S        3.52594868       8.81691512       0.00560869       0.00000000       0.00221089      -0.00263281       0.00218904
S        1.30485035      10.16606961       1.69530286       0.00000000       0.00067620      -0.00081350      -0.00102356
S        3.14994405       6.10271234       1.69607742       0.00000000      -0.00049622       0.00047900      -0.00215201
Fe       0.00503061       5.41729630       3.37973335       0.06500000       0.00518000       0.00088729      -0.00069497
Fe       2.22191736       8.12939112       5.07982257       0.06500000      -0.00190442      -0.00217412       0.00360032
S        0.91131696       7.45805568       3.38078295       0.00000000      -0.00654423       0.00040726       0.00051191
S        3.52337402       8.81917552       3.38526654       0.00000000       0.00457374       0.00219932      -0.00665736
S        1.30399812      10.16274486       5.08745407       0.00000000       0.00006145       0.00043246      -0.00487173
S        3.06680830       6.11964112       4.96403528       0.00000000      -0.00569011       0.02819780      -0.02864980
Fe       0.00432185       5.41514267       6.77798324       0.06500000       0.00163008      -0.00208079       0.01611362
Fe       2.20709648       8.14147220       8.49575715       0.06500000       0.00537695      -0.03306773      -0.01231276
S        0.91821728       7.45563713       6.78537521       0.00000000      -0.00707413       0.00133389       0.00255928
S        3.56012410       8.80046440       6.79253044       0.00000000       0.01661395      -0.00576724      -0.00537078
S        1.30363145      10.16791205       8.47502551       0.00000000      -0.00808406       0.00039081       0.00743075
S        3.07298942       6.11538969       8.51848496       0.00000000       0.00123927      -0.02982814      -0.03833001
Fe       0.00457434       5.42384189      10.18396352       0.06500000       0.00093665      -0.00195301      -0.00186225
Fe       2.22844384       8.13717582      11.86343615       0.06500000      -0.00336866      -0.01063074      -0.01199394
S        0.91035581       7.46517097      10.17947445       0.00000000      -0.00052168       0.00100890      -0.01006176
S        3.52001310       8.82009443      10.17098542       0.00000000      -0.00061449      -0.00315706       0.00032704
S        1.30559459      10.16917437      11.86252258       0.00000000       0.00049957      -0.00260041       0.00392016
S        3.14827399       6.10574680      11.85956689       0.00000000      -0.01312137      -0.00502754       0.01017823
Fe       4.44951538      -0.00236861       0.00533727       0.06500000      -0.00150435      -0.00315192      -0.00212964
Fe       6.67096394       2.70795695       1.69450327       0.06500000      -0.00103127       0.00209905       0.00584052
S        5.37186996       2.02848923       0.00305498       0.00000000      -0.00330438      -0.00049674       0.00445212
S        7.97085663       3.39035554       0.00330414       0.00000000      -0.00071194      -0.00433231       0.00514658
S        5.75193563       4.73894016       1.69390154       0.00000000       0.00148713      -0.00149844       0.00110995
S        7.59342826       0.67514622       1.69511007       0.00000000      -0.00367925       0.00026200      -0.00035635
Fe       4.44884430      -0.00484387       3.39028006       0.06500000      -0.00082327      -0.00029825       0.00918655
Fe       6.68583433       2.70562200       5.06927288       0.06500000      -0.00244460       0.00548956       0.01081303
S        5.37839338       2.02487461       3.38911900       0.00000000      -0.00607757       0.00037924      -0.00037538
S        7.97734548       3.37603686       3.37821197       0.00000000       0.00551682       0.00237030       0.00537952
S        5.80998108       4.73341253       5.04904416       0.00000000      -0.00511701       0.00141334      -0.00154909
S        7.59276616       0.67397775       5.08658182       0.00000000      -0.00288298       0.00056796      -0.00392273
Fe       4.44788818       0.00005934       6.78023561       0.06500000      -0.00017406      -0.00389728       0.00096853
Fe       6.68648866       2.70825206       8.48722570       0.06500000      -0.00572765       0.02111853      -0.00485347
S        5.34301455       2.04617000       6.77860175       0.00000000      -0.02178213       0.00197204       0.00256596
S        7.97458005       3.38205825       6.77999687       0.00000000       0.00426392      -0.00486401       0.00625755
S        5.82538580       4.72664374       8.53209107       0.00000000      -0.00379315       0.01454473      -0.01920897
S        7.59274928       0.67618064       8.47265168       0.00000000       0.00590300      -0.00891941       0.00701988
Fe       4.44931122      -0.00090171      10.16938932       0.06500000      -0.00130972      -0.00655143      -0.01105986
Fe       6.67041372       2.71012502      11.86050009       0.06500000       0.00114388       0.00441227      -0.01151931
S        5.37570270       2.02764375      10.16892634       0.00000000      -0.00048877      -0.00874484       0.00281330
S        7.98674040       3.38301204      10.17831584       0.00000000       0.00009076      -0.01005378      -0.00851369
S        5.75079374       4.74190494      11.85993196       0.00000000       0.01047185      -0.00143416       0.01261846
S        7.59297851       0.67821990      11.86242119       0.00000000      -0.00441484      -0.00374044       0.00467144
Fe       4.45130365       5.42228217       0.00188621       0.06500000      -0.00038721      -0.00164268       0.00386077
Fe       6.66791139       8.13468696       1.69944156       0.06500000       0.00304496      -0.00964961       0.00283876
S        5.37122217       7.45707000       0.00468879       0.00000000      -0.00666558      -0.00525122      -0.00202320
S        7.96656284       8.81634988       0.00428601       0.00000000       0.00393327       0.00534532      -0.00141385
S        5.74821111      10.16696322       1.69732453       0.00000000       0.00129224      -0.00186739      -0.00535921
S        7.59159503       6.10584913       1.69734908       0.00000000      -0.00144342      -0.00056590       0.00057824
Fe       4.45919830       5.41907374       3.40760168       0.06500000       0.00094977       0.00110712       0.01618972
Fe       6.66451207       8.14805674       5.08443525       0.06500000       0.00438630      -0.00376487       0.00162262
S        5.37138522       7.46055553       3.39477005       0.00000000       0.01125603       0.01032632      -0.00761612
S        7.96753713       8.81892113       3.39182465       0.00000000      -0.00266392       0.00269889      -0.00687359
S        5.74917490      10.17296283       5.08498871       0.00000000       0.00523014       0.01073178       0.00724820
S        7.56525508       6.07850533       5.07822551       0.00000000       0.00277088       0.00242712       0.00716129
Fe       6.66832705       8.15067429       8.47866012       0.06500000      -0.00234459      -0.02254240      -0.01206953
S        5.37209255       7.50730994       6.78817965       0.00000000      -0.02008983      -0.01367416      -0.01313859
S        7.96795145       8.81318216       6.77857179       0.00000000       0.00274028       0.01401277       0.00629535
S        5.75125684      10.17659476       8.47620471       0.00000000       0.00724588       0.00083509      -0.00486556
S        7.57776437       6.08439729       8.48776150       0.00000000      -0.01334711      -0.00732147      -0.00413973
Fe       4.45326211       5.42214050      10.12202122       0.06500000       0.00306270      -0.00502779      -0.00718006
Fe       6.66468199       8.13649564      11.85938345       0.06500000       0.00458942      -0.01057238      -0.00940458
S        5.36220494       7.46513425      10.15451501       0.00000000       0.00193398       0.00198515       0.01251639
S        7.97393533       8.82079210      10.17236466       0.00000000      -0.00614494      -0.00278065       0.00566054
S        5.74730841      10.16837107      11.86031654       0.00000000      -0.00164242      -0.00407854       0.00307812
S        7.58953213       6.10833023      11.85880002       0.00000000       0.00172804      -0.00187511       0.00099322
H        3.52187235       5.61026377       6.17263824       0.00000000       0.02758537       0.17609614       0.04355783
96
Lattice="8.886 0.0 0.0 0.0 10.85 0.0 0.0 0.0 13.548" Properties=species:S:1:pos:R:3:initial_magmoms:R:1:forces:R:3 spacegroup="P n n m" unit_cell=primitive nspins=2 nkpts=8 fermi_level=12.4119 natoms=96 mineral=marcasite rc=1.0 image_index=8 U_eV=0.0 nspin=2 source_file=results/dft_datasets/2026-06-03/marc_warm_neb_W2/prod_essentials/neb_warm.traj method=PBE_U0_ONCV energy=-124948.34823508392 pbc="T T T"
Fe       0.00554172      -0.00017189      -0.00015497       0.06500000       0.00013035      -0.00022291      -0.00525456
Fe       2.23231715       2.71241766       1.69423135       0.06500000      -0.00397698      -0.00183577       0.00064638
S        0.93241885       2.03129858      -0.00026167       0.00000000      -0.00195455      -0.00226668      -0.00232608
S        3.52737532       3.39043825      -0.00125978       0.00000000       0.00422612       0.00613748       0.00191187
S        1.30680763       4.74056573       1.69356768       0.00000000       0.00014887       0.00274774       0.00195790
S        3.15082697       0.68108827       1.69223458       0.00000000      -0.00258087       0.00012136      -0.00610148
Fe       0.00531632      -0.00184858       3.38436602       0.06500000      -0.00035918       0.00170824      -0.00363014
Fe       2.22408185       2.70043115       5.07851665       0.06500000      -0.01246445      -0.00324396      -0.00372784
S        0.92363700       2.02567496       3.38035126       0.00000000      -0.00554536       0.00291435      -0.00869033
S        3.54048081       3.38215881       3.39188828       0.00000000      -0.00513141      -0.00219084      -0.00377875
S        1.26906077       4.72147771       5.08050321       0.00000000       0.00106624       0.00144136       0.00911739
S        3.14853178       0.67068012       5.07950734       0.00000000      -0.00610508      -0.00450971       0.00110403
Fe       0.00654081      -0.00279802       6.77431915       0.06500000      -0.00109143       0.00593591       0.00587034
Fe       2.22696758       2.69503425       8.47539591       0.06500000      -0.00143776      -0.00793160       0.00076567
S        0.92536260       2.02661517       6.77917549       0.00000000      -0.00994477      -0.00636528      -0.00033244
S        3.51734045       3.33402111       6.78490943       0.00000000       0.00348282       0.00132386      -0.00034504
S        1.31279119       4.76041843       8.48303920       0.00000000       0.00506327      -0.00209416      -0.00137760
S        3.14418356       0.66994006       8.47153284       0.00000000      -0.00266186      -0.00230294      -0.00443644
Fe       0.00424339      -0.00119017      10.16425333       0.06500000       0.00052296      -0.00031445       0.00072737
Fe       2.23203229       2.71230028      11.85352169       0.06500000      -0.00059084       0.00168382      -0.00150230
S        0.92150912       2.02577081      10.16773514       0.00000000       0.00244101       0.00673706       0.00014244
S        3.53541842       3.38221142      10.15035517       0.00000000      -0.00025454      -0.00465524      -0.00565154
S        1.30668522       4.74006877      11.85202840       0.00000000       0.00207462       0.00180620       0.00278836
S        3.15004695       0.67943971      11.85457916       0.00000000      -0.00079961       0.00116137       0.00065692
Fe       0.00570112       5.42363539       0.00010643       0.06500000      -0.00245617      -0.00087083       0.00177175
Fe       2.22603416       8.13991565       1.68709946       0.06500000       0.00010284      -0.00063069       0.00355892
S        0.92676985       7.45650514      -0.00260838       0.00000000       0.00107986      -0.00298891       0.00126344
S        3.52427921       8.81848618      -0.00225567       0.00000000       0.00564769       0.00049905       0.00000360
S        1.30337456      10.17043236       1.68979883       0.00000000       0.00080090       0.00177766      -0.00264669
S        3.14934741       6.10687063       1.68977171       0.00000000      -0.00041009       0.00129892       0.00374096
Fe       0.00712963       5.42280159       3.37706588       0.06500000       0.00296397      -0.00107524       0.00515146
Fe       2.21582792       8.14244017       5.06486143       0.06500000       0.00110069      -0.00672806       0.00468558
S        0.90782874       7.46553994       3.37206811       0.00000000       0.00297914       0.00624624       0.00228828
S        3.52153422       8.82877640       3.37414133       0.00000000      -0.00114080      -0.00356766       0.00291615
S        1.30138645      10.17145444       5.08171434       0.00000000      -0.00270146       0.00078213      -0.00506533
S        3.06769114       6.14607033       4.95271540       0.00000000       0.00157866      -0.00095002      -0.01324889
Fe       0.00451336       5.41867295       6.77359302       0.06500000      -0.00569319      -0.00396901       0.00293311
Fe       2.20594698       8.14030206       8.48470468       0.06500000       0.00411274       0.00249114       0.00200803
S        0.91577187       7.46083023       6.77581538       0.00000000      -0.00443541       0.00179592       0.00335940
S        3.55849426       8.80371972       6.78186079       0.00000000       0.00356895       0.00490721      -0.00075873
S        1.30146721      10.16823191       8.46879772       0.00000000       0.00353630       0.00174681       0.00107626
S        3.07189801       6.11265858       8.50382440       0.00000000       0.01047313      -0.00589374      -0.00428063
Fe       0.00315151       5.42395058      10.17656968       0.06500000       0.00284390      -0.00039518       0.01056029
Fe       2.22641565       8.13698810      11.85462852       0.06500000       0.00028539       0.00124878      -0.00067183
S        0.90965730       7.46454704      10.16928978       0.00000000      -0.00065512       0.00146116       0.00351778
S        3.51835537       8.81926206      10.16252526       0.00000000       0.00070037      -0.00486916       0.00099527
S        1.30382325      10.16920012      11.85669109       0.00000000       0.00129584       0.00113051      -0.00087983
S        3.14540033       6.10547420      11.85304041       0.00000000       0.00097445      -0.00259964       0.00073148
Fe       4.44837416      -0.00056883      -0.00027647       0.06500000      -0.00147838       0.00036407      -0.00401966
Fe       6.67024235       2.71192106       1.69105520       0.06500000      -0.00191033       0.00647867       0.00554690
S        5.37138758       2.03059092      -0.00104689       0.00000000      -0.00547414      -0.00056564      -0.00121587
S        7.96980579       3.39189575      -0.00128088       0.00000000      -0.00061475       0.00130998       0.00090040
S        5.75134237       4.74238802       1.69070106       0.00000000      -0.00450123       0.00016224      -0.00432511
S        7.59257017       0.67932854       1.69026009       0.00000000      -0.00468172       0.00046768      -0.00277525
Fe       4.44812505       0.00117476       3.38490833       0.06500000      -0.00477351       0.00075848      -0.00215896
Fe       6.68316317       2.71186787       5.06691807       0.06500000       0.01053741       0.00145370      -0.00900966
S        5.37684072       2.03173655       3.38600664       0.00000000       0.00051473      -0.00743434      -0.00654757
S        7.97780663       3.38220644       3.37670497       0.00000000       0.00221603      -0.00579012      -0.00194915
S        5.80668551       4.73958646       5.04733526       0.00000000       0.00798970       0.01021911      -0.00422149
S        7.59086290       0.68063839       5.08199862       0.00000000      -0.00116728      -0.00676200      -0.00084024
Fe       4.44674646       0.00202770       6.77463683       0.06500000      -0.00404949       0.00097368       0.00337946
Fe       6.68438277       2.71079890       8.48175702       0.06500000       0.00124878      -0.00089603       0.00172778
S        5.33743171       2.04967745       6.77488021       0.00000000      -0.00215073      -0.00183371      -0.00169873
S        7.97429073       3.38507478       6.77670584       0.00000000      -0.00042192      -0.00104412      -0.00180260
S        5.82228848       4.72800749       8.52317575       0.00000000      -0.00203374       0.00718495       0.00098216
S        7.59117782       0.67789070       8.46788172       0.00000000       0.00005322      -0.00594233       0.00089397
Fe       4.44765369      -0.00129762      10.16296912       0.06500000      -0.00144162       0.00001646      -0.00076825
Fe       6.66933229       2.71097255      11.85490936       0.06500000       0.00049674       0.00018255      -0.00104747
S        5.37386466       2.02753114      10.16363070       0.00000000       0.00148353       0.00128838       0.00503602
S        7.98453870       3.38323386      10.17124213       0.00000000       0.00671855      -0.00369442       0.00604055
S        5.75020898       4.74266574      11.85439581       0.00000000      -0.00108423       0.00190776       0.00379778
S        7.59128565       0.67873939      11.85716868       0.00000000      -0.00269297       0.00018101      -0.00128787
Fe       4.45045590       5.42393130      -0.00327142       0.06500000       0.00042269       0.00160900      -0.00125393
Fe       6.66722218       8.13779623       1.69330916       0.06500000       0.00127244      -0.00087289       0.00163959
S        5.37052325       7.45837287      -0.00165312       0.00000000      -0.00664862      -0.00422329       0.00124210
S        7.96561608       8.81837298      -0.00215689       0.00000000       0.00171338       0.00213144      -0.00279222
S        5.74766543      10.17089766       1.69163911       0.00000000      -0.00086672      -0.00074202      -0.00577161
S        7.59163299       6.10835990       1.69310620       0.00000000      -0.00189593       0.00373941      -0.00125958
Fe       4.45917223       5.42672971       3.40485548       0.06500000      -0.00138223      -0.00077904      -0.00692809
Fe       6.66366750       8.15344130       5.07807629       0.06500000       0.00851241      -0.00216693      -0.00242121
S        5.37210455       7.46696490       3.38800555       0.00000000       0.00567237       0.00553687      -0.00043734
S        7.96593394       8.82462350       3.38506210       0.00000000      -0.00122230       0.00457554      -0.00641439
S        5.74826221      10.17890836       5.07967380       0.00000000       0.00657894       0.00232531       0.00112537
S        7.56553803       6.08308790       5.07448385       0.00000000       0.00057747      -0.00010722      -0.00482236
Fe       6.66596103       8.15102833       8.47231997       0.06500000       0.00284261       0.00290895       0.00039826
S        5.37188179       7.51252900       6.77973190       0.00000000       0.00114851      -0.00458222      -0.00113180
S        7.96612962       8.81730136       6.77329835       0.00000000       0.00607989       0.01274804       0.00108912
S        5.74998083      10.17798294       8.47037630       0.00000000       0.00171724      -0.00152441      -0.00515223
S        7.57435392       6.08473899       8.48085755       0.00000000       0.00310949       0.00740658       0.00278630
Fe       4.45223992       5.42187472      10.11463043       0.06500000       0.00249783       0.00010490       0.00316991
Fe       6.66378577       8.13654776      11.85257872       0.06500000       0.00142979      -0.00153418      -0.00142439
S        5.36021075       7.46439495      10.14915311       0.00000000       0.00251557       0.00551065      -0.00535766
S        7.97213070       8.82095433      10.16571294       0.00000000      -0.00320771      -0.00542271       0.00054687
S        5.74549927      10.16851049      11.85449326       0.00000000       0.00115880      -0.00035995       0.00083869
S        7.58895550       6.10859900      11.85224092       0.00000000      -0.00032216       0.00072068       0.00174912
H        3.55712962       5.76325181       6.18978909       0.00000000      -0.01529626      -0.01262180       0.04440038
