96
Lattice="8.886 0.0 0.0 0.0 10.85 0.0 0.0 0.0 13.548" Properties=species:S:1:pos:R:3:initial_magmoms:R:1 spacegroup="P n n m" unit_cell=primitive nspins=2 nkpts=8 fermi_level=12.4119 natoms=96 mineral=marcasite rc=1.0 image_index=8 U_eV=0.0 nspin=2 source_file=results/dft_datasets/2026-06-03/marc_warm_neb_W2/prod_essentials/relaxed_endB_warm.xyz method=PBE_U0_ONCV geometry=dft_relaxed pbc="T T T"
Fe       0.00554172      -0.00017189      -0.00015497       0.06500000
Fe       2.23231715       2.71241766       1.69423135       0.06500000
S        0.93241885       2.03129858      -0.00026167       0.00000000
S        3.52737532       3.39043825      -0.00125978       0.00000000
S        1.30680763       4.74056573       1.69356768       0.00000000
S        3.15082697       0.68108827       1.69223458       0.00000000
Fe       0.00531632      -0.00184858       3.38436602       0.06500000
Fe       2.22408185       2.70043115       5.07851665       0.06500000
S        0.92363700       2.02567496       3.38035126       0.00000000
S        3.54048081       3.38215881       3.39188828       0.00000000
S        1.26906077       4.72147771       5.08050321       0.00000000
S        3.14853178       0.67068012       5.07950734       0.00000000
Fe       0.00654081      -0.00279802       6.77431915       0.06500000
Fe       2.22696758       2.69503425       8.47539591       0.06500000
S        0.92536260       2.02661517       6.77917549       0.00000000
S        3.51734045       3.33402111       6.78490943       0.00000000
S        1.31279119       4.76041843       8.48303920       0.00000000
S        3.14418356       0.66994006       8.47153284       0.00000000
Fe       0.00424339      -0.00119017      10.16425333       0.06500000
Fe       2.23203229       2.71230028      11.85352169       0.06500000
S        0.92150912       2.02577081      10.16773514       0.00000000
S        3.53541842       3.38221142      10.15035517       0.00000000
S        1.30668522       4.74006877      11.85202840       0.00000000
S        3.15004695       0.67943971      11.85457916       0.00000000
Fe       0.00570112       5.42363539       0.00010643       0.06500000
Fe       2.22603416       8.13991565       1.68709946       0.06500000
S        0.92676985       7.45650514      -0.00260838       0.00000000
S        3.52427921       8.81848618      -0.00225567       0.00000000
S        1.30337456      10.17043236       1.68979883       0.00000000
S        3.14934741       6.10687063       1.68977171       0.00000000
Fe       0.00712963       5.42280159       3.37706588       0.06500000
Fe       2.21582792       8.14244017       5.06486143       0.06500000
S        0.90782874       7.46553994       3.37206811       0.00000000
S        3.52153422       8.82877640       3.37414133       0.00000000
S        1.30138645      10.17145444       5.08171434       0.00000000
S        3.06769114       6.14607033       4.95271540       0.00000000
Fe       0.00451336       5.41867295       6.77359302       0.06500000
Fe       2.20594698       8.14030206       8.48470468       0.06500000
S        0.91577187       7.46083023       6.77581538       0.00000000
S        3.55849426       8.80371972       6.78186079       0.00000000
S        1.30146721      10.16823191       8.46879772       0.00000000
S        3.07189801       6.11265858       8.50382440       0.00000000
Fe       0.00315151       5.42395058      10.17656968       0.06500000
Fe       2.22641565       8.13698810      11.85462852       0.06500000
S        0.90965730       7.46454704      10.16928978       0.00000000
S        3.51835537       8.81926206      10.16252526       0.00000000
S        1.30382325      10.16920012      11.85669109       0.00000000
S        3.14540033       6.10547420      11.85304041       0.00000000
Fe       4.44837416      -0.00056883      -0.00027647       0.06500000
Fe       6.67024235       2.71192106       1.69105520       0.06500000
S        5.37138758       2.03059092      -0.00104689       0.00000000
S        7.96980579       3.39189575      -0.00128088       0.00000000
S        5.75134237       4.74238802       1.69070106       0.00000000
S        7.59257017       0.67932854       1.69026009       0.00000000
Fe       4.44812505       0.00117476       3.38490833       0.06500000
Fe       6.68316317       2.71186787       5.06691807       0.06500000
S        5.37684072       2.03173655       3.38600664       0.00000000
S        7.97780663       3.38220644       3.37670497       0.00000000
S        5.80668551       4.73958646       5.04733526       0.00000000
S        7.59086290       0.68063839       5.08199862       0.00000000
Fe       4.44674646       0.00202770       6.77463683       0.06500000
Fe       6.68438277       2.71079890       8.48175702       0.06500000
S        5.33743171       2.04967745       6.77488021       0.00000000
S        7.97429073       3.38507478       6.77670584       0.00000000
S        5.82228848       4.72800749       8.52317575       0.00000000
S        7.59117782       0.67789070       8.46788172       0.00000000
Fe       4.44765369      -0.00129762      10.16296912       0.06500000
Fe       6.66933229       2.71097255      11.85490936       0.06500000
S        5.37386466       2.02753114      10.16363070       0.00000000
S        7.98453870       3.38323386      10.17124213       0.00000000
S        5.75020898       4.74266574      11.85439581       0.00000000
S        7.59128565       0.67873939      11.85716868       0.00000000
Fe       4.45045590       5.42393130      -0.00327142       0.06500000
Fe       6.66722218       8.13779623       1.69330916       0.06500000
S        5.37052325       7.45837287      -0.00165312       0.00000000
S        7.96561608       8.81837298      -0.00215689       0.00000000
S        5.74766543      10.17089766       1.69163911       0.00000000
S        7.59163299       6.10835990       1.69310620       0.00000000
Fe       4.45917223       5.42672971       3.40485548       0.06500000
Fe       6.66366750       8.15344130       5.07807629       0.06500000
S        5.37210455       7.46696490       3.38800555       0.00000000
S        7.96593394       8.82462350       3.38506210       0.00000000
S        5.74826221      10.17890836       5.07967380       0.00000000
S        7.56553803       6.08308790       5.07448385       0.00000000
Fe       6.66596103       8.15102833       8.47231997       0.06500000
S        5.37188179       7.51252900       6.77973190       0.00000000
S        7.96612962       8.81730136       6.77329835       0.00000000
S        5.74998083      10.17798294       8.47037630       0.00000000
S        7.57435392       6.08473899       8.48085755       0.00000000
Fe       4.45223992       5.42187472      10.11463043       0.06500000
Fe       6.66378577       8.13654776      11.85257872       0.06500000
S        5.36021075       7.46439495      10.14915311       0.00000000
S        7.97213070       8.82095433      10.16571294       0.00000000
S        5.74549927      10.16851049      11.85449326       0.00000000
S        7.58895550       6.10859900      11.85224092       0.00000000
H        3.55712962       5.76325181       6.18978909       0.00000000
