136
Lattice="0.0 10.07 10.07 10.07 0.0 10.07 10.07 10.07 0.0" Properties=species:S:1:pos:R:3 mineral=pentlandite model="pure-Fe Fe72S64 (synthetic endmember)" rc="V_Fe + S-H lateral hop endpoint B" U_eV=0.0 nspin=1 geometry_origin=dft_relaxed method=PBE_U0_ONCV note="V_Fe+S-H production NEB DEFERRED to companion nspin=2 study; no barrier in Paper #1" source_file=results/dft_datasets/2026-05-11/w3_pent_v3_mirror_endB/relaxed_endB.xyz pbc="T T T"
Fe      15.00864211      15.20135789      17.02549731
Fe       9.69207791       7.01921523      15.75483198
Fe      13.12078477      10.44792209      15.75483198
Fe      12.91524467      17.29475533      11.13932367
Fe       4.10316780       5.96683220       5.53752602
Fe      12.45818922      15.97801674       9.10692864
Fe       4.16198326       7.68181078       9.10692864
Fe       2.36609051       7.70390949       5.62535299
Fe       1.91653633       8.15346367       9.11977981
S       16.86352352      15.88508240      16.12172967
S        7.15708802       8.55568499       7.36111916
S        9.22375620       5.35912471      14.49654589
S        5.05072769       9.49215000       9.84147515
S        9.01143770      16.28883991       7.62406500
S        3.93126581       8.07565865       6.99292530
S        8.43590942       8.83336946      15.61042428
S        5.79993267       6.31901069       9.37032946
Fe       9.21082172      10.92917828      14.78941040
Fe      15.54516386      11.67222783      16.35156975
Fe      18.53777217      14.66483614      16.35156975
Fe       7.62551922      12.51448078      10.55440129
Fe       9.09341668      11.04658332       6.20628576
Fe       5.25751724       9.49394207       7.74840098
Fe      10.64605793      14.88248276       7.74840098
Fe       7.86710884      12.27289116       4.40009154
Fe       5.76243470      14.37756530       9.65162483
S       11.30663054      11.70409058      15.61042428
S       13.82098931      14.34006733       9.37032946
S       14.78087529      10.91624380      14.49654589
S       10.64785000      15.08927231       9.84147515
S        3.85116009      11.12856230       7.62406500
S        1.99434135       6.13873419       6.99292530
S       14.32491760      13.34647648      16.12172967
S       11.58431501      12.98291198       7.36111916
Fe       9.45329853      15.70139687      11.44624013
Fe      14.91648580      17.11981895      13.80884630
Fe       8.08561930      10.07171193      10.55588579
Fe      16.80286580      17.79073011      15.14684221
Fe       8.80183130       7.20599595       9.94073539
Fe      17.25297521      14.84425633      13.98086498
Fe       9.72585397       8.73832039      11.98470396
Fe       6.76009610       8.27405809       9.40448206
Fe       5.12186081       9.39272049      15.53718447
S       11.50846868      16.10524776      12.54516185
S       13.31564468       8.71673542      13.97604024
S       14.34242719      15.86757281      12.10634465
S       10.59363706       9.54636294      13.95038705
S       13.07568307      17.13431693      14.83050623
S       11.11855633       9.02144367      10.29990013
S       14.10475224      18.70153132      12.54516185
S       11.42326458       6.82435532      13.97604024
Fe       4.43860313      10.68670147      11.44624013
Fe      10.06828807      12.05438070      10.55588579
Fe      13.09018105      15.29351420      13.80884630
Fe      12.41926989      13.40713420      15.14684221
Fe      12.93400405      11.33816870       9.94073539
Fe      11.40167961      10.41414603      11.98470396
Fe      15.36574367      12.95702479      13.98086498
Fe      11.86594191      13.37990390       9.40448206
Fe      10.74727951      15.01813919      15.53718447
S        6.57933983      10.97120616      11.87380206
S       18.68541023      13.57364945      12.94318490
S        8.68195388      11.45804612       9.03483928
S       17.71056842      12.49943158      16.54419445
S        9.28530258      10.85469742      12.26546994
S       15.98155890      14.22844110      12.16649806
S        9.16879384      13.56066017      11.87380206
S       16.63635055      11.52458977      12.94318490
Fe      11.08272145       5.10344968      12.57097485
Fe       6.75175218       5.62905364       5.18202789
Fe       9.67028494       8.04654529       5.89784175
Fe       9.74511742       4.95833864       8.85770908
Fe      10.58908220      14.42765206      13.52843500
Fe       9.15613894       2.82798659       8.10764575
Fe      12.67453683      15.58949604      16.38789005
Fe       9.27458034       7.83394265       3.41051514
Fe       5.72867252       6.92708729       7.31292121
S        3.08114130       4.57274835       4.13867940
S       15.72513940      16.67534063      18.47775246
S        6.51515176       3.55484824       4.26512926
S       12.52602894       7.61397106       7.30311939
S        5.37466316       4.69533684       6.76340209
S       15.15243529      15.05756471      14.69117957
S        5.49725165       6.98885870       4.13867940
S       13.53465937      14.48486060      18.47775246
Fe      15.03655032       9.05727855      12.57097485
Fe      12.09345471      10.46971506       5.89784175
Fe       4.44094636       3.31824782       5.18202789
Fe      15.18166136      10.39488258       8.85770908
Fe       5.71234794       9.55091780      13.52843500
Fe      14.62050396      17.53546317      16.38789005
Fe      17.31201341      10.98386106       8.10764575
Fe      12.30605735      10.86541966       3.41051514
Fe       3.14291271       4.34132748       7.31292121
S        8.31074580       9.49107536       4.95145640
S       10.87517270       1.76965624       9.07168920
S       11.16026692       8.97973308       4.16092373
S        7.53666222       2.53333778       9.52337864
S       10.42418382       9.71581618       7.15865277
S        8.23122833      11.90877167      16.43681374
S       10.64892464      11.82925420       4.95145640
S       18.37034376       9.26482730       9.07168920
Fe      16.03401204      14.17598796      10.03737286
Fe      11.37821182       6.95601196       9.65015498
Fe      13.18398804       8.76178818       9.65015498
Fe       5.09444198       4.97555802       3.48050091
Fe       6.28836115       3.78163885       2.08152267
Fe       3.85579297       2.81646210       2.84345105
Fe       7.25353790       6.21420703       2.84345105
Fe      13.65470935       6.48529065       8.54747702
Fe      12.11244070       8.02755930      12.18352523
S        8.14784008       5.15581704      10.23986312
S        9.76288516       7.80741994       1.20399761
S       11.45607458       4.73116923      10.20531478
S        7.19527742       8.30124014       2.53955217
S       10.14873317       6.74147170      11.53516676
S        7.20136618       5.28961038       0.88715171
S        9.78643169       6.92194163       8.02442095
S        8.88662044       6.20897876       4.88415684
Fe      16.33339234      10.45378953      11.06642674
Fe       9.68621047       3.80660766      11.06642674
Fe       9.60893205      10.53106795       3.61742748
Fe      10.79283209      19.41716791      10.27635642
Fe       8.48974297       9.53058267       1.37953178
Fe      10.60941733      11.65025703       1.37953178
Fe      19.12969470      11.08030530       9.68565404
Fe      18.22699526      11.98300474      11.59111296
S       13.21805837      10.35356831       8.02442095
S        3.86102124       1.18337956       4.88415684
S       15.40883077       8.68392542      10.20531478
S        1.76875986       2.87472258       2.53955217
S       13.39852830       9.99126683      11.53516676
S        4.78038962       2.86863382       0.88715171
S       14.98418296      11.99215992      10.23986312
S       12.33258006      10.37711484       1.20399761
H       10.62165690       9.51834310       8.58333792
