96
Lattice="10.836 0.0 0.0 0.0 10.836 0.0 0.0 0.0 10.836" Properties=species:S:1:pos:R:3:spacegroup_kinds:I:1:forces:R:3 spacegroup="P a -3" unit_cell=conventional nspins=1 nkpts=8 fermi_level=12.8598 natoms=96 mineral=pyrite rc=0.0 image_index=0 U_eV=0.0 nspin=1 source_file=results/dft_datasets/2026-05-29/pyr_vfe_mlip_band/pyr_vfe_mlip_band_mace.xyz method=MACE-MP-0 vacancy_type=V_Fe energy=-570.8830343423416 pbc="T T T"
Fe       0.00062036       0.00073728      -0.00021130        0      -0.00433839      -0.00465296       0.00151284
Fe       2.71003974       0.00295908       2.70619574        0       0.01172674      -0.01414028       0.01617144
Fe       0.00341564       2.70673105       2.70682231        0      -0.01837599       0.02959412       0.00563238
Fe       2.70829270       2.70812874       0.00148161        0       0.02663731      -0.01674060       0.02411292
S        2.07268088       2.07219430       2.07235796        1      -0.02704937      -0.03466110      -0.04088455
S        0.63463282       3.34544913       4.77388700        1      -0.05358138       0.01712506      -0.03209413
S        3.35250191       4.77898156       0.63125289        1      -0.01339626      -0.01106128      -0.00711378
S        4.78477393       0.63382716       3.34690215        1      -0.02911639      -0.05818316       0.00333173
S        3.36030424       3.35252309       3.34931816        1      -0.01322485       0.04008894       0.06031804
S        4.78026178       2.06805375       0.64294232        1      -0.03778657      -0.04124090       0.03006246
S        2.07150377       0.63966731       4.77605708        1      -0.04663008       0.03479799      -0.04180162
S        0.64132164       4.77872189       2.06537159        1       0.04233313      -0.03303275      -0.05379238
Fe       0.00251715       0.00409810       5.41770140        0      -0.02167048      -0.02608688      -0.00101029
Fe       2.70907224       0.00123752       8.12568923        0       0.03365184       0.03229646       0.00540269
Fe       0.00251007       2.70947894       8.12777571        0      -0.04028187       0.02133337      -0.02268497
Fe       2.70453119       2.71379815       5.41762282        0      -0.09227516      -0.25647249      -0.01979646
S        2.07144721       2.06268238       7.49448680        1       0.06848549       0.02836611      -0.04145197
S        0.63850871       3.34671142      10.19826438        1       0.01123568       0.00824446       0.00135835
S        3.18475338       4.72618259       6.11923533        1       0.68941688       0.02239928      -0.21203020
S        4.78144125       0.63380199       8.76714168        1      -0.02355519       0.02420412       0.01166004
S        3.35185770       3.33584720       8.77897888        1      -0.06813271       0.01297767      -0.03130521
S        4.81507990       2.09059918       6.04352687        1      -0.15686611      -0.06182175      -0.02341991
S        2.07042649       0.63649503      10.20025448        1      -0.01041553       0.00931774      -0.00880910
S        0.61706613       4.78141865       7.49417113        1      -0.09967203       0.07367393       0.08312122
Fe       0.00366238       5.41834264      -0.00609747        0      -0.02117832       0.00156613       0.03998771
Fe       2.71760104       5.42308551       2.69644431        0       0.01047813       0.03058800       0.04831688
Fe       0.00214495       8.12801114       2.70401130        0       0.00512509       0.01231488       0.00986042
Fe       2.71216324       8.12885359      -0.00480137        0       0.01801075      -0.01026072      -0.00790422
S        2.07014980       7.49509112       2.06385796        1       0.01459052       0.01744818       0.00555128
S        0.63370749       8.77184598       4.77576613        1       0.00337381       0.04276166      -0.01845618
S        3.34882533      10.19909442       0.63680492        1       0.00248369       0.00279694       0.00428196
S        4.77130812       6.09514327       3.28114740        1      -0.08618646      -0.06918642      -0.23835667
S        3.34794541       8.77219796       3.33995670        1      -0.07209190       0.00065758      -0.05691151
S        4.78764962       7.49560461       0.62073810        1      -0.04921192      -0.00982253      -0.04384062
S        2.07030685       6.08575514       4.76134993        1      -0.10459935      -0.09738839      -0.03003321
S        0.63749792      10.20032153       2.07003264        1       0.01814941      -0.00730898      -0.01660894
Fe       0.01492041       5.42081829       5.41243882        0      -0.16867642       0.04398976      -0.03745424
Fe       2.70413281       5.41256599       8.12989934        0      -0.12946455       0.04654349       0.21541403
Fe       0.00242502       8.12958047       8.12704155        0      -0.02442335      -0.00322920      -0.00645222
Fe       2.70542904       8.14581582       5.41687468        0       0.06129425      -0.04016000       0.01182393
S        2.07018448       7.49938724       7.49355475        1      -0.00254212       0.00922848       0.02112664
S        0.63759202       8.76633092      10.19750737        1       0.01326395       0.01602536      -0.01256670
S        3.34585702      10.21964208       6.05205083        1      -0.01333892       0.00037413       0.04536865
S        4.80596722       6.03306477       8.74563190        1      -0.04977055       0.03301785       0.06674663
S        3.35192860       8.76701462       8.76663839        1      -0.03368750      -0.00461408      -0.01128598
S        4.74640125       7.56480214       6.07566642        1       0.06259315       0.33150925       0.06485792
S        2.07334848       6.05989193      10.20001301        1       0.01026297       0.01181615      -0.03281581
S        0.63824970      10.19994816       7.48853081        1       0.00996457      -0.00561256      -0.00698480
Fe       5.41883162      -0.00062887       0.00127968        0       0.01277499       0.00149736       0.00086129
Fe       8.13028477      -0.00124635       2.71040317        0      -0.03316275      -0.03365523       0.01934433
Fe       5.42156366       2.69701603       2.71914289        0       0.04934626       0.03126064      -0.01361889
Fe       8.12815328       2.70718083       0.00224082        0      -0.01906562       0.03427585       0.03075676
S        7.49169683       2.07028131       2.07028073        1       0.00777515       0.01109548       0.01718658
S        6.09573697       3.28239298       4.76911244        1      -0.03321409      -0.16730283      -0.10266074
S        8.76665603       4.77778537       0.63509294        1       0.03622993      -0.01383310       0.00930655
S       10.19886569       0.63831847       3.34732401        1       0.01381000       0.00323024       0.00311413
S        8.77015169       3.34379493       3.34422022        1       0.01201636      -0.05532435      -0.03924583
S       10.19882359       2.07049608       0.63743351        1       0.01091072      -0.01758768       0.00173602
S        7.49796348       0.62053679       4.78469044        1      -0.00526432      -0.03517678      -0.03524191
S        6.04487776       4.80498053       2.09741629        1      -0.08642114      -0.04095835      -0.03301645
Fe       5.42041408      -0.00235173       5.41911408        0       0.02962802       0.00335139      -0.00791702
Fe       8.13024141       0.00087555       8.13035518        0      -0.01244046      -0.01222292      -0.03264755
Fe       5.42493998       2.70557527       8.14984888        0      -0.01050996       0.04257236      -0.05509632
Fe       8.13341037       2.69251348       5.41537549        0      -0.01830931       0.00262438       0.01000756
S        7.49718139       2.06905485       7.49368742        1       0.02805155      -0.00462432       0.05095501
S        6.05508929       3.34036128      10.21960128        1       0.03705098       0.00818368       0.03195593
S        8.74772346       4.79937130       6.02628966        1       0.08222313       0.03125819       0.07725216
S       10.19864256       0.63725971       8.76589654        1       0.00992081       0.00051568       0.01456312
S        8.76978927       3.34734339       8.76569559        1      -0.01025744       0.00241507      -0.00896885
S       10.20201360       2.07251192       6.05853926        1      -0.01976012      -0.02516599       0.00078412
S        7.48930881       0.63729318      10.19939664        1       0.00463062       0.00236704       0.00102552
S        6.07476464       4.74393177       7.56226589        1       0.12255688       0.01026232       0.16588033
Fe       5.41966879       5.41800986       0.00319311        0       0.03748245       0.00083631       0.00222935
Fe       8.15022466       5.42070788       2.70676472        0      -0.03944754      -0.01092537      -0.00356536
Fe       5.41643592       8.12971751       2.69265457        0       0.02405625      -0.00954518      -0.00859588
Fe       8.13182485       8.12818776       0.00054416        0      -0.03631388      -0.01000705      -0.00873018
S        7.49497499       7.49117716       2.06910097        1       0.05158090       0.04478165      -0.01102049
S        6.03396100       8.73731998       4.79365220        1       0.03909640       0.05685591       0.08739903
S        8.76546067      10.19826591       0.63785904        1       0.02823029      -0.00202159      -0.00131605
S       10.21411355       6.05289350       3.33442746        1       0.03564790       0.04107731      -0.01766791
S        8.76553428       8.76631996       3.34694016        1       0.01354301      -0.00917241      -0.00969176
S       10.19937922       7.48926089       0.63526402        1       0.01548508      -0.00493104       0.00948341
S        7.55759222       6.06583113       4.74524029        1       0.19921822       0.10132989       0.05023533
S        6.06030143      10.20037898       2.07098875        1       0.01386838      -0.01631155      -0.02026349
Fe       8.12490060       5.42025065       8.13814304        0      -0.01252735      -0.05328377       0.00017518
Fe       5.42187224       8.14218351       8.12119223        0      -0.03142839      -0.03278352      -0.00871519
Fe       8.14368846       8.11810683       5.41844335        0      -0.03980258       0.02584065      -0.04862144
S        7.48620602       7.48337315       7.48189567        1      -0.05770311      -0.06361349      -0.06135788
S        6.06145307       8.76650130      10.19669491        1       0.03520985       0.05159398      -0.03393317
S        8.76786841      10.19625930       6.05818979        1       0.05740322      -0.03577919       0.04124611
S       10.19524922       6.06347047       8.76738530        1       0.01190926      -0.03666687      -0.00024324
S        8.76393867       8.76350534       8.76292212        1       0.07094010       0.06963555       0.06600658
S       10.20372558       7.49246010       6.05426260        1       0.07137567      -0.00418985       0.02281189
S        7.49315024       6.05631337      10.20213333        1      -0.01339729       0.01936017       0.05933730
S        6.05872665      10.20231991       7.48959194        1       0.02591239       0.06388258      -0.00309610
H        4.44406460       5.10741729       5.68611415        0      -0.31039711      -0.11440131       0.07142364
96
Lattice="10.836 0.0 0.0 0.0 10.836 0.0 0.0 0.0 10.836" Properties=species:S:1:pos:R:3:spacegroup_kinds:I:1:forces:R:3 spacegroup="P a -3" unit_cell=conventional nspins=1 nkpts=8 fermi_level=12.8598 natoms=96 mineral=pyrite rc=0.125 image_index=1 U_eV=0.0 nspin=1 source_file=results/dft_datasets/2026-05-29/pyr_vfe_mlip_band/pyr_vfe_mlip_band_mace.xyz method=MACE-MP-0 vacancy_type=V_Fe energy=-570.9410235541822 pbc="T T T"
Fe       0.00186428       0.00228695      -0.00184027        0       0.00115483      -0.00041730       0.00094689
Fe       2.70830150      -0.00235195       2.70354854        0       0.00341599      -0.00250971      -0.00072635
Fe       0.00078269       2.70846844       2.70640623        0      -0.00144563      -0.00138657      -0.00004659
Fe       2.70771894       2.70500978       0.00147844        0       0.00283063       0.00160762       0.00054527
S        2.06723339       2.06568568       2.06464471        1       0.00003208      -0.00187944      -0.00076782
S        0.62562617       3.34932932       4.77322255        1      -0.00500932      -0.00203742      -0.00179994
S        3.34880986       4.77501841       0.62383157        1       0.00497590       0.00170637       0.00314433
S        4.77801831       0.61453840       3.34351835        1       0.00383146       0.00356030       0.00167754
S        3.35453821       3.34697905       3.35297986        1      -0.00135144      -0.00203874       0.00071732
S        4.77304822       2.05950411       0.64293498        1       0.00274082       0.00189552       0.00182322
S        2.06027267       0.64150570       4.76793614        1       0.00349318      -0.00770251      -0.00151945
S        0.64438992       4.77204907       2.05800933        1       0.00274719       0.00016068       0.00372180
Fe       0.00143844       0.00154225       5.41653448        0       0.00117519      -0.00125417      -0.00001341
Fe       2.71053882       0.00800491       8.12482809        0       0.00392837      -0.00084662      -0.00049638
Fe      -0.00143253       2.71273236       8.12521178        0      -0.00085765       0.00256742       0.00311543
Fe       2.69594172       2.69424661       5.41482134        0      -0.00679364      -0.00573480      -0.00159541
S        2.07493689       2.06799222       7.48762600        1      -0.00153576      -0.00136047       0.00113561
S        0.63681500       3.34704880      10.19684467        1       0.00188597       0.00213601       0.00386383
S        3.25014744       4.71640508       6.12335227        1      -0.02952983      -0.00819938      -0.00317781
S        4.77749612       0.64424450       8.76786490        1       0.00353828       0.00002336      -0.00119590
S        3.34316441       3.33929276       8.77559009        1      -0.00128897       0.00180383      -0.00113637
S        4.79201727       2.07554326       6.03792388        1      -0.00091570       0.00411013       0.00103063
S        2.06873468       0.63970872      10.19685295        1       0.00210155      -0.00084466       0.00021959
S        0.61622859       4.79056739       7.50114815        1      -0.00581187       0.00231188       0.00147883
Fe       0.00211409       5.41868665       0.00087870        0       0.00176631       0.00221413       0.00227554
Fe       2.71272755       5.41842408       2.69663344        0       0.00617769      -0.00016985       0.00516762
Fe       0.00714576       8.12996485       2.70225323        0       0.00197903      -0.00171719       0.00190707
Fe       2.71284807       8.13190845      -0.00828378        0       0.00582056      -0.00173741       0.00099176
S        2.07223034       7.49594682       2.06075760        1       0.00499361      -0.00238395       0.00165837
S        0.64154488       8.77347238       4.77183433        1       0.00263010      -0.00030812       0.00125303
S        3.34835509      10.20011463       0.63334801        1       0.00425467      -0.00080840       0.00028400
S        4.75469235       6.09136870       3.22638650        1       0.00737213      -0.00531620       0.01848834
S        3.34437302       8.76607520       3.32838735        1       0.00420050      -0.00109596       0.00246631
S        4.78431200       7.50161777       0.61116671        1       0.00470124      -0.00400281       0.00311386
S        2.07652048       6.06653796       4.76094581        1      -0.00573657       0.00238938      -0.00078663
S        0.64016145      10.20030206       2.06517141        1       0.00073894      -0.00266346       0.00045265
Fe       0.00952575       5.42473275       5.41199146        0      -0.00502674       0.00160674       0.00048255
Fe       2.69481991       5.42035015       8.14468134        0      -0.00317800      -0.00081327      -0.00121935
Fe       0.00346105       8.13260180       8.12836095        0       0.00348750       0.00215653       0.00091267
Fe       2.71470702       8.13907073       5.41548202        0       0.00483442      -0.00306904       0.00122829
S        2.07200023       7.50388172       7.49636057        1       0.00364186      -0.00055983      -0.00016438
S        0.63985004       8.77056067      10.19502457        1       0.00473076       0.00015901       0.00194790
S        3.33786797      10.22155098       6.05222796        1       0.00782915      -0.00420249       0.00058905
S        4.80087915       6.04363717       8.76077277        1      -0.00134166      -0.00063724      -0.00550844
S        3.34729639       8.77360304       8.76481383        1       0.00650492      -0.00143681      -0.00066126
S        4.75340004       7.62863164       6.09074218        1       0.00695745      -0.02276817      -0.00457430
S        2.07089905       6.06345704      10.19873573        1       0.00383106      -0.00017138       0.00154859
S        0.64104748      10.20193064       7.48778888        1       0.00219959       0.00085056      -0.00059573
Fe       5.42071605       0.00175466      -0.00108219        0       0.00277556      -0.00046999       0.00079460
Fe       8.13100435      -0.00611333       2.70987013        0      -0.00018382      -0.00073773       0.00280349
Fe       5.41985027       2.68475849       2.70827978        0       0.00136430       0.00510875       0.00682952
Fe       8.12832498       2.70895630       0.00753843        0      -0.00048938       0.00208794       0.00128064
S        7.49349402       2.06656688       2.07091834        1      -0.00166954       0.00067887       0.00300786
S        6.09218268       3.23197271       4.74617402        1      -0.00434315       0.01815070       0.00948239
S        8.77148485       4.77552016       0.64238498        1       0.00072479       0.00180798       0.00094954
S       10.20026197       0.63801259       3.34514388        1       0.00101702      -0.00163648       0.00045721
S        8.76844214       3.33399676       3.34288042        1      -0.00123113       0.00104740       0.00151736
S       10.20018524       2.06867277       0.63775136        1      -0.00089971      -0.00016198       0.00009908
S        7.50358551       0.61391692       4.78190716        1      -0.00189788       0.00225733       0.00085131
S        6.03809802       4.78973846       2.08713701        1       0.00140491       0.00275818       0.00637786
Fe       5.42293110      -0.00124014       5.41680709        0       0.00220572      -0.00039973       0.00058154
Fe       8.13330599       0.00430385       8.12907677        0       0.00075334       0.00208349       0.00074349
Fe       5.42539753       2.71156870       8.14947766        0      -0.00138923       0.00409661      -0.00135686
Fe       8.12860215       2.68908481       5.41770005        0      -0.00132018       0.00282377       0.00113483
S        7.49706582       2.07328515       7.50173514        1       0.00030740       0.00260556      -0.00037870
S        6.05734075       3.33847581      10.22327677        1       0.00144312       0.00291864       0.00146787
S        8.76026479       4.80302005       6.04460792        1      -0.00223525       0.00156960      -0.00047397
S       10.20159604       0.64102570       8.76606570        1       0.00185891       0.00217364       0.00104770
S        8.77216463       3.34604203       8.76860819        1      -0.00176401       0.00512483       0.00202133
S       10.19737160       2.07119626       6.05775192        1      -0.00091732      -0.00036801       0.00163614
S        7.49262994       0.64008260      10.19996686        1       0.00049185       0.00102173       0.00117133
S        6.10233962       4.74916354       7.60917433        1      -0.01289748       0.00223399      -0.01396391
Fe       5.42225224       5.41839830       0.00373497        0       0.00263369       0.00023853       0.00100675
Fe       8.14890332       5.41750608       2.71071932        0       0.00021637       0.00042535       0.00232722
Fe       5.42201406       8.12711850       2.68484071        0       0.00262877      -0.00300545       0.00388461
Fe       8.13272895       8.13072638       0.00068424        0       0.00243755       0.00012908       0.00265306
S        7.50540786       7.49394551       2.07068944        1       0.00165488      -0.00148985       0.00230876
S        6.05185699       8.75361639       4.79837745        1      -0.00200571      -0.00724980       0.00305367
S        8.77094215      10.19936714       0.63660815        1       0.00076856       0.00094382       0.00285315
S       10.22256822       6.05685446       3.32898542        1      -0.00147534      -0.00077317       0.00231385
S        8.77343766       8.76679738       3.34418207        1       0.00104191      -0.00192028       0.00330296
S       10.20307463       7.49085457       0.63541865        1       0.00304827       0.00092820       0.00287369
S        7.60293621       6.08466986       4.75088821        1      -0.00998323      -0.00267452       0.00447975
S        6.06438607      10.19572194       2.06432686        1       0.00098070      -0.00174060       0.00327058
Fe       8.13421809       5.42130936       8.15346451        0      -0.00580329       0.00196007      -0.00304620
Fe       5.42405250       8.15366269       8.12927714        0       0.00338226      -0.00448266      -0.00397253
Fe       8.15360072       8.12853642       5.41910917        0      -0.00122540      -0.00189973       0.00110103
S        7.48605638       7.48331357       7.48301367        1       0.00336232       0.00290125       0.00023614
S        6.06878084       8.77941533      10.19270126        1       0.00322833      -0.00290911       0.00106318
S        8.78050732      10.19449016       6.06527480        1      -0.00167582       0.00139380       0.00048175
S       10.20162878       6.06285900       8.77318811        1      -0.00294797       0.00404859       0.00067132
S        8.77522687       8.77443903       8.77170160        1       0.00308216       0.00317971       0.00231028
S       10.22221199       7.49365462       6.05900116        1      -0.00027470       0.00189938       0.00056216
S        7.49345568       6.06286681      10.22082485        1       0.00092255       0.00018023      -0.00180069
S        6.06486250      10.22261686       7.49068892        1       0.00208656      -0.00294346      -0.00107167
H        4.54634838       5.04713286       5.84631594        0      -0.04587239       0.01489941      -0.10114686
96
Lattice="10.836 0.0 0.0 0.0 10.836 0.0 0.0 0.0 10.836" Properties=species:S:1:pos:R:3:spacegroup_kinds:I:1:forces:R:3 spacegroup="P a -3" unit_cell=conventional nspins=1 nkpts=8 fermi_level=12.8598 natoms=96 mineral=pyrite rc=0.25 image_index=2 U_eV=0.0 nspin=1 source_file=results/dft_datasets/2026-05-29/pyr_vfe_mlip_band/pyr_vfe_mlip_band_mace.xyz method=MACE-MP-0 vacancy_type=V_Fe energy=-570.9032141551581 pbc="T T T"
Fe       0.00121813       0.00272809      -0.00233350        0       0.00284556       0.00031261       0.00053496
Fe       2.70815723      -0.00083888       2.70331531        0       0.00518463      -0.00316016      -0.00170283
Fe       0.00289931       2.70962913       2.70653382        0      -0.00040760      -0.00064857      -0.00108668
Fe       2.70742595       2.70557718       0.00031247        0       0.00552655       0.00209413       0.00164157
S        2.06775403       2.06670105       2.06402237        1       0.00179929      -0.00119664      -0.00116642
S        0.63407575       3.35266604       4.77549354        1      -0.00908796      -0.00117616      -0.00459064
S        3.34800873       4.77542341       0.62269496        1       0.00844801       0.00252992       0.00416013
S        4.77795213       0.61468977       3.34190603        1       0.00635917       0.00411002       0.00202635
S        3.35867859       3.34935202       3.35280697        1       0.00011375      -0.00459566       0.00197217
S        4.77323541       2.06046125       0.63997575        1       0.00427971       0.00033272       0.00638670
S        2.06241718       0.64637271       4.76867038        1       0.00403748      -0.01240791      -0.00394894
S        0.64490071       4.77235523       2.05676304        1       0.00591417       0.00146251       0.00485997
Fe       0.00266095       0.00330907       5.41600985        0       0.00223879      -0.00140370      -0.00147427
Fe       2.71028302       0.00900335       8.12403582        0       0.00614916      -0.00143876      -0.00050326
Fe      -0.00047585       2.71313552       8.12376827        0       0.00109966       0.00220780       0.00338784
Fe       2.70452150       2.70072874       5.41530746        0      -0.01106191      -0.01164234      -0.00106314
S        2.07702026       2.06944302       7.48755045        1      -0.00054410      -0.00447007       0.00170958
S        0.63651008       3.34721273      10.19538569        1       0.00452523       0.00283723       0.00522923
S        3.27859067       4.72178875       6.12717115        1      -0.05465419      -0.02358919       0.01057129
S        4.77758832       0.64526042       8.76622750        1       0.00499334       0.00041359      -0.00138221
S        3.34562521       3.34055114       8.77399147        1       0.00005860      -0.00052334       0.00167678
S        4.79563916       2.07370831       6.03570701        1      -0.00279191       0.00352792       0.00100392
S        2.06804627       0.64043141      10.19618300        1       0.00366978      -0.00052957       0.00056636
S        0.62015872       4.79095620       7.49900782        1      -0.01220306       0.00411289       0.00233362
Fe       0.00156910       5.41879936      -0.00018883        0       0.00484889       0.00389012       0.00424905
Fe       2.71498247       5.41896363       2.69600220        0       0.00944082       0.00027816       0.00922867
Fe       0.00728065       8.12990474       2.70218687        0       0.00301228       0.00072966      -0.00009779
Fe       2.71154300       8.13302750      -0.00849077        0       0.00859443      -0.00165692       0.00049600
S        2.07231722       7.49650824       2.06001403        1       0.00697784      -0.00082905       0.00204823
S        0.64183342       8.77493402       4.77127666        1       0.00474648       0.00026745       0.00068781
S        3.34749199      10.20109564       0.63272678        1       0.00635564      -0.00075161      -0.00014100
S        4.75702901       6.09043327       3.22756035        1       0.01016735      -0.00348572       0.01627907
S        3.34392509       8.76705504       3.32708011        1       0.00646628      -0.00073205       0.00239563
S        4.78312653       7.50388954       0.61196902        1       0.00737179      -0.00431360       0.00120475
S        2.08775117       6.06863481       4.75994316        1      -0.01470087       0.01078120      -0.00907706
S        0.63996888      10.20067751       2.06497341        1       0.00221919      -0.00145162      -0.00073069
Fe       0.01409296       5.42503700       5.41114814        0      -0.00592125       0.00484522      -0.00210614
Fe       2.69324798       5.42269680       8.14614450        0      -0.00953810      -0.00294307       0.00583774
Fe       0.00345850       8.13292995       8.12729390        0       0.00434464       0.00489495       0.00096323
Fe       2.71533907       8.14098184       5.41508148        0       0.00766056      -0.00764897       0.00152976
S        2.07189734       7.50380991       7.49590150        1       0.00299809       0.00110552       0.00118304
S        0.63867334       8.77100829      10.19451870        1       0.00652704       0.00190024       0.00168958
S        3.33771713      10.22345169       6.05148401        1       0.00997396      -0.00642260       0.00038801
S        4.80265306       6.04721988       8.76597080        1       0.00065889      -0.00895786      -0.01219878
S        3.34635583       8.77510752       8.76466952        1       0.01025220      -0.00313698      -0.00165288
S        4.75265795       7.62831434       6.08949700        1       0.01082979      -0.03433184      -0.00700855
S        2.06956488       6.06409810      10.19839462        1       0.00540045       0.00170062       0.00463174
S        0.64098204      10.20256332       7.48717887        1       0.00432187       0.00166372      -0.00139797
Fe       5.42031975       0.00228243      -0.00198355        0       0.00421560      -0.00029420       0.00022442
Fe       8.13138769      -0.00587800       2.70880496        0       0.00087886      -0.00021949       0.00238736
Fe       5.42130112       2.68417206       2.70424319        0       0.00311185       0.00697085       0.01051987
Fe       8.12862796       2.70966133       0.00547407        0       0.00202380       0.00095659       0.00218478
S        7.49509814       2.06708007       2.06862947        1      -0.00090132       0.00029711       0.00374454
S        6.09470724       3.22830100       4.74061285        1      -0.00828370       0.02575533       0.01651439
S        8.77134506       4.77595920       0.64069738        1       0.00437590       0.00052638       0.00247718
S       10.20089993       0.63909235       3.34472167        1       0.00235235      -0.00068924      -0.00099273
S        8.77084792       3.33422618       3.34126454        1      -0.00120696       0.00135421       0.00146700
S       10.20021219       2.06962069       0.63719173        1       0.00145754      -0.00018126      -0.00010624
S        7.50461499       0.61357672       4.78061762        1      -0.00085571       0.00359159       0.00017827
S        6.03954113       4.79016931       2.08297156        1       0.00298440       0.00374857       0.00780068
Fe       5.42357626      -0.00215102       5.41532183        0       0.00370140       0.00025532       0.00070498
Fe       8.13362489       0.00386790       8.12781941        0       0.00218022       0.00230828      -0.00040946
Fe       5.42900053       2.70922561       8.14897208        0       0.00207465       0.00893977       0.00368600
Fe       8.13091296       2.68933749       5.41562009        0      -0.00227660       0.00489277       0.00224082
S        7.49832559       2.07350694       7.49970534        1       0.00329317       0.00301058       0.00207868
S        6.05718828       3.33929311      10.21879643        1       0.00355438       0.00247385       0.00608048
S        8.76224641       4.80264105       6.04185169        1       0.00070264       0.00331372       0.00208389
S       10.20132773       0.64138843       8.76502180        1       0.00393099       0.00197524       0.00072263
S        8.77318249       3.34578137       8.76516927        1       0.00413998       0.00196286       0.00587874
S       10.20023363       2.07332109       6.05631568        1      -0.00080122       0.00012111       0.00015901
S        7.49253469       0.64035611      10.19885309        1       0.00212671       0.00098153       0.00048064
S        6.11589251       4.75131571       7.61500820        1      -0.00789793       0.00374496       0.01101747
Fe       5.42236274       5.41978605       0.00272968        0       0.00464662       0.00021230       0.00347205
Fe       8.14989072       5.41745919       2.70932148        0       0.00084150       0.00090674       0.00216069
Fe       5.42180430       8.12731538       2.68465487        0       0.00396621      -0.00293638       0.00235654
Fe       8.13234101       8.13084360      -0.00031514        0       0.00403856       0.00224425       0.00339756
S        7.50567097       7.49413878       2.06950968        1       0.00298102      -0.00030417       0.00314357
S        6.05180832       8.75369662       4.79791287        1      -0.00101119      -0.00879450       0.00348622
S        8.77055256      10.19953869       0.63561463        1       0.00208726       0.00185141       0.00243839
S       10.22453023       6.05664805       3.32921534        1      -0.00161790       0.00152750      -0.00134712
S        8.77350165       8.76687124       3.34332659        1       0.00235517      -0.00094068       0.00294832
S       10.20245793       7.49075573       0.63468007        1       0.00513951       0.00339828       0.00277392
S        7.60349464       6.08445391       4.74852266        1      -0.00893990      -0.00327920       0.00670527
S        6.06434403      10.19597691       2.06312824        1       0.00240575      -0.00128947       0.00264358
Fe       8.13863892       5.42295235       8.15051747        0       0.00113874       0.00157766       0.01018150
Fe       5.42334405       8.15379591       8.12920538        0       0.00508987      -0.00509343      -0.00655701
Fe       8.15382072       8.12824212       5.41762458        0      -0.00020377      -0.00237740       0.00131828
S        7.48520101       7.48291095       7.48134141        1       0.00516870       0.00180189       0.00143054
S        6.06790517       8.78021935      10.19285673        1       0.00511631      -0.00239690      -0.00161420
S        8.78149616      10.19463670       6.06412933        1      -0.00095834       0.00214728      -0.00059681
S       10.20326060       6.06323932       8.77142186        1       0.00102072       0.00752537       0.00420293
S        8.77496596       8.77437888       8.77036948        1       0.00392747       0.00472140       0.00250755
S       10.22318691       7.49366336       6.05787982        1       0.00062601       0.00393294      -0.00073654
S        7.49362308       6.06366072      10.21844047        1       0.00381872       0.00325619       0.00569749
S        6.06465156      10.22192098       7.48997462        1       0.00348601      -0.00264389      -0.00175067
H        4.64083436       4.98237516       6.04845960        0      -0.14950447       0.00660214      -0.17892900
96
Lattice="10.836 0.0 0.0 0.0 10.836 0.0 0.0 0.0 10.836" Properties=species:S:1:pos:R:3:spacegroup_kinds:I:1:forces:R:3 spacegroup="P a -3" unit_cell=conventional nspins=1 nkpts=8 fermi_level=12.8598 natoms=96 mineral=pyrite rc=0.375 image_index=3 U_eV=0.0 nspin=1 source_file=results/dft_datasets/2026-05-29/pyr_vfe_mlip_band/pyr_vfe_mlip_band_mace.xyz method=MACE-MP-0 vacancy_type=V_Fe energy=-570.8009011213421 pbc="T T T"
Fe      -0.00008519       0.00285524      -0.00275840        0       0.00230779       0.00083451      -0.00059808
Fe       2.70753454      -0.00012984       2.70278532        0       0.00383202      -0.00301728      -0.00234221
Fe       0.00253008       2.70991875       2.70505634        0       0.00088719       0.00102386      -0.00100011
Fe       2.70576850       2.70663361      -0.00165792        0       0.00332062       0.00046477       0.00063186
S        2.06679147       2.06654179       2.06197410        1       0.00141487       0.00027702      -0.00125105
S        0.63696640       3.35380026       4.77613090        1       0.00346313       0.00364719      -0.00271242
S        3.34543299       4.77629803       0.62019377        1       0.00722014       0.00214930       0.00444707
S        4.77692770       0.61479576       3.34034125        1       0.00583023       0.00372176       0.00107204
S        3.35813880       3.35163786       3.35200056        1       0.00220991      -0.01056554      -0.00397319
S        4.77321288       2.06195121       0.63597625        1      -0.00123457      -0.00366467       0.01149426
S        2.06200945       0.64896009       4.76877079        1       0.00661442      -0.00376901      -0.00334053
S        0.64370646       4.77227741       2.05467831        1       0.00551160       0.00235324       0.00391931
Fe       0.00225492       0.00374131       5.41568623        0       0.00244044       0.00033513      -0.00360108
Fe       2.70809755       0.00945289       8.12381747        0       0.00552417      -0.00025851      -0.00208449
Fe      -0.00296926       2.71405585       8.12256223        0       0.00339891       0.00105314       0.00008205
Fe       2.70722361       2.70548323       5.41382637        0       0.01152182       0.00555537       0.00529118
S        2.07458381       2.07145161       7.48708290        1       0.00342891      -0.00372118      -0.00354918
S        0.63460271       3.34772133      10.19349670        1       0.00362498       0.00306104       0.00314727
S        3.31256869       4.73300905       6.11827046        1       0.09970092      -0.02325359       0.06785803
S        4.77597792       0.64457612       8.76563860        1       0.00268209       0.00109753      -0.00324780
S        3.34273233       3.34273221       8.76982579        1       0.00904891      -0.00353077       0.00740003
S        4.79621957       2.07162589       6.03302728        1      -0.00523656       0.00244835       0.00105171
S        2.06711297       0.64116154      10.19593286        1       0.00146948      -0.00031604      -0.00188307
S        0.62212843       4.79077756       7.49607493        1      -0.00848260       0.00391667      -0.00030787
Fe      -0.00154151       5.41905084      -0.00255472        0       0.00572264       0.00461584       0.00383343
Fe       2.71405468       5.41874120       2.69242067        0       0.01105741       0.00038254       0.01760922
Fe       0.00727776       8.12880116       2.70255474        0       0.00160364       0.00191683      -0.00235993
Fe       2.70893983       8.13417522      -0.00757727        0       0.00838277      -0.00135301      -0.00208670
S        2.07176232       7.49576334       2.06010159        1       0.00614958       0.00089174       0.00093798
S        0.64120911       8.77486007       4.77065207        1       0.00478633      -0.00010467      -0.00013795
S        3.34685276      10.20166791       0.63250108        1       0.00327393      -0.00089707      -0.00156846
S        4.75707166       6.08816368       3.22983164        1       0.00813196      -0.00025687       0.01215055
S        3.34330678       8.76716350       3.32711124        1       0.00438106      -0.00015971      -0.00113884
S        4.78129770       7.50613585       0.61362695        1       0.00572231      -0.00299027      -0.00022863
S        2.10054940       6.06043236       4.76838129        1      -0.01087269       0.02840098      -0.02629244
S        0.63923984      10.20059740       2.06456817        1       0.00205606      -0.00140156      -0.00154358
Fe       0.01397216       5.42373169       5.41092976        0       0.00467901       0.00501592      -0.00424345
Fe       2.69123552       5.42556999       8.14225157        0      -0.00734587      -0.00346271       0.01498854
Fe       0.00175535       8.13260334       8.12656790        0       0.00343819       0.00698624      -0.00153587
Fe       2.71355983       8.14474444       5.41528201        0       0.00998595      -0.01606837       0.00077730
S        2.07056956       7.50309060       7.49500079        1      -0.00155255       0.00435317       0.00220731
S        0.63689008       8.77115504      10.19431080        1       0.00511807       0.00284500       0.00019164
S        3.33629177      10.22532192       6.05108888        1       0.00871852      -0.00530807      -0.00122610
S        4.79719342       6.05824679       8.77580640        1       0.02027787      -0.03451507      -0.02721149
S        3.34296730       8.77726696       8.76566598        1       0.01160148      -0.00373627      -0.00337993
S        4.74965876       7.63391931       6.08973269        1       0.01266261      -0.04221890      -0.00952009
S        2.06574820       6.06435564      10.19690283        1       0.00517172       0.00334937       0.00191823
S        0.63948012      10.20279396       7.48730332        1       0.00418276       0.00246917      -0.00404302
Fe       5.41984687       0.00221342      -0.00218824        0       0.00155964      -0.00035926      -0.00120971
Fe       8.13120447      -0.00619036       2.70747231        0       0.00071496       0.00023247       0.00069088
Fe       5.42089946       2.68301336       2.69988471        0       0.00390924       0.00838654       0.01032563
Fe       8.12727006       2.71077191       0.00229287        0       0.00171817      -0.00099974       0.00149333
S        7.49515224       2.06747105       2.06571375        1      -0.00055782      -0.00081198       0.00286099
S        6.09729147       3.22267263       4.73366432        1      -0.01084383       0.03221850       0.01869700
S        8.76853525       4.77734797       0.63661172        1       0.00612084      -0.00259883       0.00354964
S       10.20047001       0.63914435       3.34397618        1       0.00257697       0.00121609      -0.00188169
S        8.77107450       3.33427675       3.33823393        1       0.00001587       0.00073144       0.00000222
S       10.19846738       2.07037273       0.63570608        1       0.00182613       0.00017385      -0.00095946
S        7.50468239       0.61228280       4.77904973        1      -0.00105580       0.00382644      -0.00210008
S        6.03900200       4.78986522       2.07908470        1       0.00299467       0.00371253       0.00636877
Fe       5.42294521      -0.00295758       5.41347966        0       0.00372969       0.00146463       0.00009810
Fe       8.13329852       0.00335110       8.12738942        0       0.00062433       0.00096747      -0.00425477
Fe       5.42576099       2.70142200       8.14561868        0       0.01134025       0.01942246       0.01299809
Fe       8.13120594       2.68842969       5.41261827        0      -0.00393702       0.00594706       0.00203227
S        7.49548312       2.07292255       7.49576251        1       0.00578799       0.00492981       0.00687868
S        6.05500956       3.33833541      10.21330772        1       0.00195498       0.00454967       0.00745190
S        8.75769787       4.80119004       6.03695107        1       0.00334329       0.00462538       0.00382508
S       10.19988627       0.64197227       8.76478028        1       0.00333611       0.00001487      -0.00160784
S        8.76785121       3.34838991       8.75881847        1       0.01671273      -0.01092781       0.00960682
S       10.20005217       2.07370025       6.05568507        1      -0.00028493       0.00307387      -0.00580217
S        7.49201179       0.64057445      10.19813058        1       0.00111329      -0.00052985      -0.00222298
S        6.11733692       4.74889341       7.60372324        1       0.08282662       0.02003048       0.15056560
Fe       5.42016132       5.42089304      -0.00011807        0       0.00471757       0.00131227       0.01040635
Fe       8.14968184       5.41742456       2.70648669        0      -0.00041667       0.00056225       0.00071921
Fe       5.42117158       8.12696587       2.68515357        0       0.00220260      -0.00231295      -0.00040484
Fe       8.13069925       8.12992680      -0.00211042        0       0.00417297       0.00480494       0.00331681
S        7.50497938       7.49374177       2.06698592        1       0.00200836       0.00129000       0.00360541
S        6.05099251       8.75457828       4.79692158        1      -0.00149131      -0.00755785       0.00212351
S        8.76962470      10.19899105       0.63452863        1       0.00180669       0.00305602       0.00040160
S       10.22539378       6.05613255       3.32972737        1      -0.00015664       0.00206551      -0.00471851
S        8.77299850       8.76649807       3.34171615        1       0.00216152      -0.00058065       0.00179918
S       10.20053041       7.49065583       0.63371390        1       0.00553457       0.00412346       0.00154501
S        7.60200966       6.08570870       4.74358356        1      -0.00610418      -0.00440043       0.00611236
S        6.06386428      10.19563428       2.06252062        1       0.00155712      -0.00045783       0.00046309
Fe       8.13345785       5.42478887       8.13705268        0       0.02218414       0.00024829       0.03858035
Fe       5.42109728       8.15388690       8.13009564        0       0.00577152      -0.00156580      -0.00936135
Fe       8.15311194       8.12904023       5.41523920        0      -0.00117735      -0.00553418       0.00076038
S        7.48251972       7.48377015       7.47814226        1       0.00348907      -0.00422135       0.00317408
S        6.06639118       8.78074101      10.19394360        1       0.00333531      -0.00138432      -0.00473962
S        8.78141937      10.19460918       6.06362101        1      -0.00111022       0.00184575      -0.00438186
S       10.19781774       6.06321688       8.76762740        1       0.01800418       0.00834640       0.00336654
S        8.77322682       8.77367485       8.76859196        1       0.00321853       0.00517266       0.00135300
S       10.22232853       7.49352215       6.05700194        1       0.00072792       0.00330254      -0.00381767
S        7.49004191       6.06255013      10.21047823        1       0.00728319       0.00971945       0.02099187
S        6.06410147      10.22074117       7.48920410        1       0.00121632      -0.00096364      -0.00335850
H        4.77147034       4.95057605       6.24046814        0      -0.51229320      -0.04476318      -0.32994418
96
Lattice="10.836 0.0 0.0 0.0 10.836 0.0 0.0 0.0 10.836" Properties=species:S:1:pos:R:3:spacegroup_kinds:I:1:forces:R:3 spacegroup="P a -3" unit_cell=conventional nspins=1 nkpts=8 fermi_level=12.8598 natoms=96 mineral=pyrite rc=0.5 image_index=4 U_eV=0.0 nspin=1 source_file=results/dft_datasets/2026-05-29/pyr_vfe_mlip_band/pyr_vfe_mlip_band_mace.xyz method=MACE-MP-0 vacancy_type=V_Fe energy=-570.7013476580452 pbc="T T T"
Fe      -0.00055233       0.00278446      -0.00289602        0       0.00102649       0.00070681      -0.00118979
Fe       2.70734895       0.00001372       2.70247392        0       0.00290107      -0.00215729      -0.00347967
Fe       0.00146773       2.70957534       2.70393138        0      -0.00178159       0.00024152      -0.00415442
Fe       2.70488310       2.70715595      -0.00219899        0       0.00053946       0.00083301       0.00012659
S        2.06611291       2.06625909       2.06110056        1      -0.00066104       0.00009983      -0.00313112
S        0.63345029       3.35285265       4.77474501        1      -0.00510461       0.00123983      -0.00717742
S        3.34391727       4.77665687       0.61865636        1       0.00282342       0.00248243       0.00170136
S        4.77646169       0.61490381       3.33998025        1       0.00425109       0.00420215       0.00019169
S        3.35681760       3.35432489       3.35309898        1      -0.00110051      -0.00184639      -0.00031531
S        4.77368271       2.06298413       0.63406205        1      -0.00054780      -0.00124891       0.00696697
S        2.06087679       0.64763284       4.76808915        1       0.00381681      -0.00715311      -0.00573542
S        0.64290217       4.77208147       2.05362597        1       0.00346958       0.00163666       0.00034319
Fe       0.00164967       0.00333031       5.41555443        0       0.00078222      -0.00006192      -0.00456782
Fe       2.70671431       0.00918365       8.12373035        0       0.00164038      -0.00097180      -0.00277576
Fe      -0.00482418       2.71449115       8.12215277        0       0.00046906       0.00132508      -0.00181166
Fe       2.70133384       2.70232061       5.41109159        0      -0.00501420      -0.00376484      -0.00220904
S        2.07203896       2.07211453       7.48750546        1      -0.00117008      -0.00151851      -0.00222023
S        0.63365070       3.34798131      10.19269215        1       0.00124012       0.00309535       0.00031375
S        3.26928514       4.73631310       6.09787894        1      -0.00843526      -0.00888095       0.00581046
S        4.77523239       0.64305912       8.76614989        1       0.00089976      -0.00324607      -0.00218338
S        3.33871954       3.34358788       8.76707257        1      -0.00011242      -0.00135070       0.00094701
S        4.79683577       2.07140254       6.03260800        1      -0.00052650       0.00232447       0.00140964
S        2.06681202       0.64132426      10.19614628        1      -0.00016383       0.00009445      -0.00187877
S        0.62166175       4.79071058       7.49497213        1      -0.00588306       0.00381167      -0.00324703
Fe      -0.00302171       5.41909792      -0.00369042        0       0.00284348       0.00446893       0.00174234
Fe       2.71265959       5.41853366       2.68808253        0       0.00623562       0.00015528       0.00434319
Fe       0.00732907       8.12806415       2.70282772        0       0.00167593      -0.00037313      -0.00160776
Fe       2.70752774       8.13470337      -0.00692300        0       0.00379199       0.00118853      -0.00071179
S        2.07133989       7.49496649       2.06003119        1       0.00435765      -0.00173949       0.00000926
S        0.64071168       8.77467991       4.77035967        1       0.00339756       0.00004456      -0.00138213
S        3.34675105      10.20162068       0.63247191        1       0.00143908      -0.00117072      -0.00209221
S        4.75677893       6.08688304       3.23041678        1       0.00706587      -0.00314098       0.01520765
S        3.34342860       8.76700152       3.32771058        1       0.00391319      -0.00031454      -0.00006897
S        4.78059177       7.50717071       0.61425374        1       0.00294519       0.00063329       0.00165396
S        2.10269130       6.05160693       4.77639893        1      -0.00239402       0.00044664      -0.00065397
S        0.63888218      10.20050098       2.06433519        1       0.00089447      -0.00167795      -0.00227050
Fe       0.01013611       5.42322057       5.41071896        0      -0.00507238       0.00364528      -0.00532123
Fe       2.69004796       5.42673090       8.13820034        0      -0.00784286      -0.00025835       0.00225983
Fe       0.00095516       8.13219794       8.12636876        0       0.00256978       0.00654371      -0.00288536
Fe       2.71207013       8.14829156       5.41506214        0       0.00588088      -0.00525037      -0.00081649
S        2.07081396       7.50221399       7.49361310        1       0.00070780       0.00051142      -0.00254394
S        0.63627852       8.77107557      10.19423018        1       0.00299760       0.00272365      -0.00069575
S        3.33573638      10.22567356       6.05106310        1       0.00754775      -0.00442730      -0.00172659
S        4.78831401       6.07031485       8.78500511        1      -0.00257647       0.00188159       0.00249499
S        3.34084847       8.77829273       8.76584989        1       0.00529222      -0.00006654      -0.00396017
S        4.74805773       7.63722180       6.08975884        1       0.00792664      -0.03174603      -0.00964090
S        2.06385258       6.06432285      10.19636359        1       0.00040297       0.00411168       0.00150474
S        0.63857111      10.20271065       7.48751416        1       0.00145965       0.00211113      -0.00461360
Fe       5.41970326       0.00174461      -0.00190726        0       0.00006361      -0.00205803      -0.00051192
Fe       8.13103064      -0.00646806       2.70708060        0      -0.00000885      -0.00044198      -0.00030198
Fe       5.41991967       2.68243364       2.69891127        0       0.00078824       0.00686308       0.00876272
Fe       8.12661899       2.71101782       0.00144832        0       0.00049872      -0.00153797       0.00065969
S        7.49456770       2.06752276       2.06475310        1      -0.00268374      -0.00099996       0.00089037
S        6.09768066       3.22040666       4.73154530        1      -0.00883198       0.02579526       0.01273572
S        8.76689923       4.77830792       0.63487451        1       0.00282299      -0.00044422       0.00066295
S       10.19998170       0.63860700       3.34359809        1       0.00107436      -0.00016955      -0.00299239
S        8.76989821       3.33446122       3.33734484        1      -0.00350039       0.00149045      -0.00182416
S       10.19757609       2.07055670       0.63493220        1       0.00021945       0.00074470      -0.00306736
S        7.50425372       0.61187624       4.77859002        1      -0.00244910       0.00327605      -0.00361504
S        6.03814658       4.78967227       2.07803738        1       0.00105966       0.00262869       0.00435470
Fe       5.42223593      -0.00341276       5.41259425        0       0.00201585       0.00047505      -0.00242105
Fe       8.13323098       0.00304250       8.12769302        0       0.00029281      -0.00045289      -0.00413845
Fe       5.42151607       2.69515758       8.14320085        0       0.00137709      -0.00001585       0.00925119
Fe       8.13059576       2.68803969       5.41159567        0      -0.00547289       0.00588723       0.00006049
S        7.49310526       2.07170125       7.49332770        1       0.00066022       0.00249962       0.00059058
S        6.05406580       3.33670296      10.21282824        1      -0.00037824       0.00042465       0.00929927
S        8.75415561       4.80052511       6.03528362        1      -0.00472522       0.00314381       0.00204167
S       10.19912828       0.64234192       8.76502317        1       0.00136142       0.00040761      -0.00191354
S        8.76242506       3.35244244       8.75589428        1       0.00479930       0.00000176       0.00249072
S       10.19886642       2.07293319       6.05626921        1      -0.00293068       0.00128276      -0.00468217
S        7.49190596       0.64044399      10.19830430        1       0.00036492      -0.00191848      -0.00206667
S        6.09077582       4.74139682       7.56193998        1       0.00005869       0.00033708       0.02392029
Fe       5.41867301       5.42102138      -0.00258664        0       0.00085209       0.00242053       0.00578959
Fe       8.14939744       5.41743117       2.70540043        0      -0.00098272       0.00058301      -0.00103088
Fe       5.42101617       8.12682993       2.68540725        0       0.00136970      -0.00183647       0.00041369
Fe       8.12977405       8.12924642      -0.00290524        0       0.00167778       0.00364055       0.00199225
S        7.50454710       7.49339082       2.06567519        1       0.00045897       0.00028065       0.00099935
S        6.05051426       8.75453581       4.79621867        1      -0.00256109      -0.00800639      -0.00031055
S        8.76932995      10.19852154       0.63430698        1       0.00115488       0.00206807      -0.00017039
S       10.22469227       6.05576676       3.33008024        1      -0.00239256       0.00085972      -0.00419977
S        8.77263628       8.76622400       3.34107387        1       0.00074709      -0.00132941       0.00055666
S       10.19945057       7.49055254       0.63329357        1       0.00253086       0.00338223       0.00023019
S        7.59985828       6.08589070       4.74208403        1      -0.01167339      -0.00537337       0.00370973
S        6.06365366      10.19545731       2.06250956        1       0.00021927      -0.00068916       0.00042563
Fe       8.12509607       5.42544473       8.12500829        0       0.00253082       0.00184271       0.00759155
Fe       5.41962526       8.15258360       8.13045392        0       0.00229839      -0.00613482      -0.00849245
Fe       8.15258907       8.12970966       5.41408727        0      -0.00249792      -0.00435083      -0.00239337
S        7.48188995       7.48499114       7.47660701        1       0.00373711      -0.00234747       0.00014353
S        6.06588925       8.78080585      10.19438387        1       0.00109878      -0.00117125      -0.00338807
S        8.78093100      10.19445169       6.06370948        1      -0.00252966       0.00139774      -0.00539198
S       10.19133422       6.06322384       8.76642368        1       0.00328841       0.00906969       0.00162101
S        8.77233130       8.77314560       8.76784537        1       0.00159822       0.00427515      -0.00045863
S       10.22141997       7.49339146       6.05681540        1      -0.00145329       0.00315330      -0.00508894
S        7.48745800       6.06051112      10.20442619        1       0.00180095       0.00426710       0.00552991
S        6.06394158      10.21953965       7.48864202        1      -0.00007433      -0.00438845      -0.00546916
H        4.93619068       4.96315391       6.35153170        0      -0.03649279      -0.01702476      -0.00075297
96
Lattice="10.836 0.0 0.0 0.0 10.836 0.0 0.0 0.0 10.836" Properties=species:S:1:pos:R:3:spacegroup_kinds:I:1:forces:R:3 spacegroup="P a -3" unit_cell=conventional nspins=1 nkpts=8 fermi_level=12.8598 natoms=96 mineral=pyrite rc=0.625 image_index=5 U_eV=0.0 nspin=1 source_file=results/dft_datasets/2026-05-29/pyr_vfe_mlip_band/pyr_vfe_mlip_band_mace.xyz method=MACE-MP-0 vacancy_type=V_Fe energy=-570.7700557052135 pbc="T T T"
Fe      -0.00077892       0.00270359      -0.00301006        0       0.00028445       0.00055541      -0.00160799
Fe       2.70725334       0.00009622       2.70239334        0       0.00209310      -0.00151897      -0.00367855
Fe       0.00041477       2.70906440       2.70312590        0      -0.00476602      -0.00123420      -0.00665264
Fe       2.70426556       2.70751657      -0.00277391        0      -0.00122506       0.00176773      -0.00118010
S        2.06542810       2.06587561       2.06066479        1      -0.00311312      -0.00093570      -0.00428732
S        0.62731085       3.35100324       4.77248502        1      -0.02379220      -0.00472468      -0.01411917
S        3.34291596       4.77684538       0.61698806        1      -0.00024338       0.00317056      -0.00286650
S        4.77615452       0.61513930       3.34004967        1       0.00255189       0.00485503       0.00078988
S        3.35672017       3.35538359       3.35249992        1      -0.00103190       0.00258708      -0.00141271
S        4.77395860       2.06365801       0.63315331        1       0.00078322       0.00176023       0.00247891
S        2.05994803       0.64583771       4.76733899        1       0.00102692      -0.01191369      -0.00810333
S        0.64252715       4.77202070       2.05326036        1       0.00293099       0.00112224      -0.00079576
Fe       0.00124014       0.00297212       5.41545898        0      -0.00039130      -0.00073240      -0.00532672
Fe       2.70582898       0.00918282       8.12338234        0      -0.00047324      -0.00051346      -0.00407600
Fe      -0.00648129       2.71483158       8.12192919        0      -0.00409010       0.00262788      -0.00266899
Fe       2.69406297       2.70215705       5.40981784        0      -0.02694351      -0.00293633      -0.00593411
S        2.06957424       2.07241031       7.48776012        1      -0.00797871      -0.00033429      -0.00116145
S        0.63305654       3.34836310      10.19201539        1      -0.00058320       0.00393690      -0.00233660
S        3.21995929       4.73565088       6.08662269        1      -0.17876953      -0.01046896      -0.03336894
S        4.77473993       0.64146686       8.76647575        1       0.00071634      -0.00714691      -0.00139153
S        3.33493106       3.34374663       8.76579225        1      -0.01215745       0.00027947      -0.00253219
S        4.79753212       2.07145783       6.03256978        1       0.00354773       0.00326721       0.00256156
S        2.06667007       0.64139482      10.19613693        1      -0.00090996       0.00037276      -0.00216861
S        0.61940418       4.79004615       7.49496314        1      -0.01146352       0.00169526      -0.00287417
Fe      -0.00362743       5.41909878      -0.00459946        0       0.00110963       0.00422611      -0.00084245
Fe       2.71147587       5.41845451       2.68516911        0       0.00264025       0.00007829      -0.00544202
Fe       0.00738640       8.12749378       2.70300243        0       0.00213024      -0.00277010      -0.00037901
Fe       2.70674707       8.13469298      -0.00679668        0       0.00061633       0.00158230      -0.00013135
S        2.07096618       7.49407169       2.06024796        1       0.00266910      -0.00523019       0.00144155
S        0.64067838       8.77401942       4.77037884        1       0.00349531      -0.00214130      -0.00184510
S        3.34667314      10.20145582       0.63239018        1       0.00019890      -0.00143439      -0.00240896
S        4.75626884       6.08638950       3.23042320        1       0.00502355      -0.00485149       0.01646932
S        3.34342821       8.76658433       3.32842557        1       0.00306558      -0.00121160       0.00238065
S        4.78017768       7.50767699       0.61433746        1       0.00077608       0.00176698       0.00169758
S        2.09689757       6.04751178       4.77881349        1      -0.01682364      -0.01449526       0.01007268
S        0.63865797      10.20032847       2.06421140        1      -0.00016474      -0.00203235      -0.00274490
Fe       0.00820290       5.42247571       5.41070218        0      -0.00976241       0.00087191      -0.00437580
Fe       2.69043882       5.42593551       8.13249545        0      -0.00529562      -0.00268200      -0.01801927
Fe       0.00072943       8.13177954       8.12621713        0       0.00220442       0.00469058      -0.00358543
Fe       2.71122912       8.15009979       5.41460975        0       0.00279124       0.00218597      -0.00216055
S        2.07080173       7.50327141       7.49291626        1       0.00088604       0.00379758      -0.00440856
S        0.63610993       8.77092807      10.19415243        1       0.00191206       0.00223306      -0.00119643
S        3.33552855      10.22577314       6.05111172        1       0.00656236      -0.00336570      -0.00192244
S        4.78090983       6.07716417       8.79059739        1      -0.02714382       0.02562564       0.02146272
S        3.33975809       8.77842123       8.76566798        1       0.00086628       0.00116904      -0.00435882
S        4.74757360       7.63393486       6.08919677        1       0.00567584      -0.04165523      -0.01053915
S        2.06312941       6.06411566      10.19583252        1      -0.00185920       0.00376631       0.00089326
S        0.63796007      10.20276538       7.48760246        1      -0.00067884       0.00233939      -0.00500273
Fe       5.41952771       0.00128066      -0.00178530        0      -0.00092385      -0.00317481      -0.00036708
Fe       8.13077410      -0.00670659       2.70696935        0      -0.00090435      -0.00107408      -0.00051778
Fe       5.41905056       2.68231513       2.69943604        0      -0.00224684       0.00561807       0.01002008
Fe       8.12620478       2.71119959       0.00101312        0      -0.00035325      -0.00108848      -0.00045090
S        7.49386397       2.06745697       2.06421782        1      -0.00499897      -0.00141523      -0.00035073
S        6.09511285       3.22230019       4.73339984        1      -0.01569403       0.03092109       0.01807528
S        8.76608866       4.77890585       0.63401320        1       0.00024716       0.00172226      -0.00173794
S       10.19960517       0.63800935       3.34341131        1      -0.00016267      -0.00200881      -0.00361527
S        8.76858262       3.33458452       3.33719085        1      -0.00730798       0.00180425      -0.00202633
S       10.19701052       2.07055743       0.63429214        1      -0.00107274       0.00068558      -0.00495476
S        7.50342039       0.61191730       4.77843119        1      -0.00488555       0.00315152      -0.00397218
S        6.03726812       4.78968952       2.07771097        1      -0.00137716       0.00231718       0.00319003
Fe       5.42139203      -0.00357707       5.41217421        0      -0.00080545      -0.00001626      -0.00326016
Fe       8.13302928       0.00280509       8.12800669        0      -0.00064390      -0.00088790      -0.00306641
Fe       5.41858193       2.69195569       8.14203804        0      -0.00845940      -0.01336397       0.00546173
Fe       8.12898788       2.68821737       5.41149603        0      -0.00900850       0.00618394       0.00009042
S        7.49183225       2.06899032       7.49219695        1      -0.00234362      -0.00553070      -0.00353204
S        6.05346096       3.33487363      10.21486934        1      -0.00147736      -0.00444008       0.01623808
S        8.75262364       4.80042895       6.03475515        1      -0.00756574       0.00243808       0.00138440
S       10.19851464       0.64264520       8.76527177        1      -0.00054325       0.00166225      -0.00155781
S        8.75865093       3.35619377       8.75456940        1      -0.00745049       0.01379940      -0.00192767
S       10.19737615       2.07204622       6.05684310        1      -0.00655184      -0.00150617      -0.00265117
S        7.49168881       0.64029394      10.19860761        1      -0.00095291      -0.00293173      -0.00111830
S        6.06376138       4.73365867       7.53213798        1      -0.07551232      -0.03143320      -0.06086598
Fe       5.41774979       5.42094892      -0.00492585        0      -0.00198482       0.00223689      -0.00159535
Fe       8.14924067       5.41746739       2.70512320        0      -0.00126556       0.00052892      -0.00066892
Fe       5.42087314       8.12667082       2.68557648        0       0.00075655      -0.00138147       0.00150806
Fe       8.12921158       8.12881646      -0.00335932        0      -0.00018498       0.00165000       0.00051600
S        7.50433363       7.49319126       2.06482840        1      -0.00030534      -0.00075952      -0.00158621
S        6.04980574       8.75386204       4.79612341        1      -0.00517008      -0.00994487      -0.00021795
S        8.76919384      10.19826876       0.63428903        1       0.00070418       0.00109649       0.00009995
S       10.22425254       6.05532551       3.33045721        1      -0.00290170      -0.00062122      -0.00189406
S        8.77247696       8.76602036       3.34075465        1      -0.00029281      -0.00197191      -0.00031799
S       10.19884244       7.49034027       0.63309608        1       0.00008862       0.00246662      -0.00068964
S        7.59838840       6.08624112       4.74157276        1      -0.01592526      -0.00422740       0.00149792
S        6.06346748      10.19528859       2.06264465        1      -0.00075080      -0.00122423       0.00125046
Fe       8.11715992       5.42506944       8.11719624        0      -0.02399156       0.00047160      -0.02018456
Fe       5.41827055       8.15031816       8.13000032        0      -0.00154939      -0.01349619      -0.00903659
Fe       8.15233377       8.12996333       5.41331921        0      -0.00280409      -0.00347246      -0.00502315
S        7.48237485       7.48750519       7.47519569        1       0.00579300       0.00564115      -0.00405442
S        6.06551692       8.78046714      10.19414984        1      -0.00060735      -0.00276608      -0.00361438
S        8.78027832      10.19438169       6.06376926        1      -0.00456541       0.00092917      -0.00539883
S       10.18683646       6.06353433       8.76617137        1      -0.01272008       0.00938954       0.00036270
S        8.77190117       8.77276898       8.76762474        1       0.00068602       0.00280450      -0.00089372
S       10.22125526       7.49307625       6.05663723        1      -0.00143727       0.00189122      -0.00584213
S        7.48655059       6.05943211      10.20175225        1      -0.00083849      -0.00074863      -0.00563544
S        6.06349021      10.21843850       7.48816403        1      -0.00221955      -0.00751271      -0.00637303
H        5.09711742       4.98670934       6.41964857        0       0.51558382       0.05958668       0.22696204
96
Lattice="10.836 0.0 0.0 0.0 10.836 0.0 0.0 0.0 10.836" Properties=species:S:1:pos:R:3:spacegroup_kinds:I:1:forces:R:3 spacegroup="P a -3" unit_cell=conventional nspins=1 nkpts=8 fermi_level=12.8598 natoms=96 mineral=pyrite rc=0.75 image_index=6 U_eV=0.0 nspin=1 source_file=results/dft_datasets/2026-05-29/pyr_vfe_mlip_band/pyr_vfe_mlip_band_mace.xyz method=MACE-MP-0 vacancy_type=V_Fe energy=-570.8829376309451 pbc="T T T"
Fe      -0.00144051       0.00232337      -0.00305441        0      -0.00103254       0.00013182      -0.00168409
Fe       2.70680715      -0.00026324       2.70250673        0      -0.00037182      -0.00178105      -0.00301957
Fe      -0.00229472       2.70791195       2.70197476        0      -0.00555103      -0.00104678      -0.00417347
Fe       2.70317059       2.70769281      -0.00347711        0      -0.00330006       0.00017326      -0.00236981
S        2.06368769       2.06480562       2.06017109        1      -0.00532165      -0.00092323      -0.00331928
S        0.61728208       3.34834009       4.77012640        1      -0.01329368      -0.00171428      -0.00887636
S        3.34164348       4.77684891       0.61481642        1      -0.00296090       0.00124816      -0.00111257
S        4.77530237       0.61549294       3.34084316        1      -0.00010457       0.00364264       0.00121581
S        3.35516403       3.35522031       3.35107314        1      -0.00314646       0.00035781      -0.00374096
S        4.77369743       2.06342375       0.63363159        1      -0.00445662      -0.00111424       0.00576752
S        2.05781004       0.64349893       4.76648504        1       0.00095586      -0.00536428      -0.00649557
S        0.64176189       4.77151644       2.05317143        1      -0.00088349       0.00019458      -0.00014072
Fe      -0.00030597       0.00206339       5.41530644        0      -0.00209157      -0.00033286      -0.00552003
Fe       2.70444211       0.00890765       8.12300264        0      -0.00144751       0.00025167      -0.00490132
Fe      -0.01014625       2.71448662       8.12258023        0      -0.00354372       0.00059836      -0.00347047
Fe       2.68492672       2.70449136       5.40954343        0      -0.01220514       0.00428117      -0.00220591
S        2.06387015       2.07182187       7.48817414        1      -0.00551332       0.00030357      -0.00363909
S        0.63198849       3.34857953      10.19197705        1      -0.00187025       0.00273403      -0.00258535
S        3.19327681       4.73788116       6.08282771        1      -0.03829826       0.00153983      -0.00364849
S        4.77301130       0.63898827       8.76600911        1      -0.00209473      -0.00564425      -0.00335859
S        3.32898018       3.34261400       8.76446032        1      -0.00593604      -0.00155827      -0.00203898
S        4.79469775       2.07406308       6.03288539        1      -0.00140024       0.00751547       0.00445956
S        2.06626400       0.64123220      10.19598793        1      -0.00276257      -0.00012544      -0.00379380
S        0.61372823       4.78781695       7.49518544        1      -0.00848524       0.00002580      -0.00482575
Fe      -0.00446290       5.41924255      -0.00514733        0      -0.00008310       0.00293270      -0.00057134
Fe       2.70933923       5.41779412       2.68260570        0       0.00083495      -0.00041876      -0.00132137
Fe       0.00712635       8.12662180       2.70330336        0      -0.00003699      -0.00266884      -0.00062979
Fe       2.70597151       8.13427739      -0.00676922        0      -0.00031572       0.00046784      -0.00147933
S        2.07036365       7.49269099       2.06091169        1       0.00095928      -0.00431866       0.00039791
S        0.64030637       8.77263149       4.77066185        1       0.00059715      -0.00200144      -0.00196981
S        3.34647124      10.20093407       0.63239442        1      -0.00296195      -0.00184202      -0.00276596
S        4.75442604       6.08512593       3.23215984        1       0.00188418      -0.00442753       0.01700809
S        3.34323693       8.76554853       3.32972695        1       0.00037181      -0.00133872       0.00005383
S        4.77962701       7.50783888       0.61485802        1      -0.00109914       0.00065952       0.00296983
S        2.08705020       6.04400244       4.77962322        1      -0.00897475      -0.00498116       0.00211868
S        0.63807192      10.19982960       2.06416265        1      -0.00137526      -0.00261510      -0.00208678
Fe       0.00318706       5.42067418       5.41103088        0      -0.00837522       0.00015485      -0.00469819
Fe       2.68925677       5.42386904       8.12613487        0      -0.00480582      -0.00212010      -0.00869750
Fe       0.00005505       8.13161900       8.12628389        0       0.00075064       0.00392721      -0.00458815
Fe       2.70983983       8.15115202       5.41417038        0       0.00144120      -0.00081763      -0.00285061
S        2.06902012       7.50604590       7.49222569        1      -0.00276017       0.00397779      -0.00446958
S        0.63577997       8.77075683      10.19428934        1       0.00039988       0.00135902      -0.00165082
S        3.33530894      10.22560567       6.05118756        1       0.00408947      -0.00241823      -0.00295322
S        4.77190109       6.07837668       8.78936217        1      -0.01482437       0.00558456       0.00275108
S        3.33889382       8.77731103       8.76524902        1       0.00005983      -0.00027865      -0.00515525
S        4.74567258       7.62487980       6.08699783        1       0.00280108      -0.03790805      -0.01117071
S        2.06166908       6.06384156      10.19519339        1      -0.00255912       0.00288259      -0.00068655
S        0.63655549      10.20290802       7.48766938        1      -0.00256439       0.00187018      -0.00635696
Fe       5.41892888       0.00033721      -0.00188768        0      -0.00372941      -0.00312141      -0.00101737
Fe       8.12960844      -0.00727429       2.70699266        0      -0.00273994      -0.00103557      -0.00040585
Fe       5.41728070       2.68267422       2.70115477        0      -0.00424551       0.00590663       0.00886749
Fe       8.12463271       2.71147538       0.00010695        0      -0.00345315      -0.00228461       0.00049101
S        7.49188809       2.06713310       2.06375504        1      -0.00685672      -0.00177933       0.00100615
S        6.08964293       3.22710627       4.73726855        1      -0.01429134       0.02887608       0.01590043
S        8.76499175       4.77903362       0.63344163        1      -0.00122748      -0.00050815       0.00054624
S       10.19826123       0.63689866       3.34312179        1      -0.00179165      -0.00165334      -0.00290017
S        8.76542187       3.33440987       3.33706254        1      -0.00801785       0.00105913      -0.00104355
S       10.19560073       2.07008373       0.63348861        1      -0.00276946       0.00026208      -0.00385845
S        7.50087197       0.61174531       4.77823570        1      -0.00699409       0.00187356      -0.00382886
S        6.03538392       4.78981238       2.07766591        1      -0.00396596       0.00239201       0.00413376
Fe       5.41955673      -0.00383685       5.41230369        0      -0.00218042       0.00001525      -0.00197545
Fe       8.13177946       0.00158477       8.12812082        0      -0.00343710      -0.00271811      -0.00450584
Fe       5.41414480       2.69012387       8.14077040        0      -0.00338399      -0.00474586       0.00862622
Fe       8.12445095       2.68864668       5.41169874        0      -0.01048762       0.00488624       0.00016696
S        7.49048312       2.06512706       7.49196968        1      -0.00049973      -0.00331730       0.00023437
S        6.05065020       3.33268518      10.21793324        1      -0.00541971      -0.00214739       0.01470519
S        8.74938422       4.79960064       6.03602481        1      -0.00698847       0.00033616       0.00398131
S       10.19691131       0.64204219       8.76589290        1      -0.00205850      -0.00076189      -0.00239853
S        8.75584214       3.35747348       8.75402811        1       0.00106209       0.00080298       0.00106536
S       10.19325096       2.07022133       6.05759000        1      -0.00695102      -0.00045008      -0.00478644
S        7.49072922       0.63989120      10.19870997        1      -0.00312488      -0.00411536      -0.00193696
S        6.07597693       4.72244396       7.55590502        1       0.02381198      -0.01519793       0.05675788
Fe       5.41495671       5.42135869      -0.00653674        0      -0.00548728       0.00289912       0.00476097
Fe       8.14851377       5.41764392       2.70484167        0      -0.00398878       0.00031480      -0.00014861
Fe       5.42010602       8.12597971       2.68614791        0      -0.00163743      -0.00168435       0.00164796
Fe       8.12818118       8.12857702      -0.00350174        0      -0.00094365       0.00197820       0.00146806
S        7.50361942       7.49304642       2.06444838        1      -0.00239397      -0.00041318       0.00051068
S        6.04812606       8.75136403       4.79674271        1      -0.00707208      -0.00993378      -0.00013481
S        8.76858445      10.19792160       0.63430863        1      -0.00037452       0.00104641       0.00001550
S       10.22325320       6.05460312       3.33058477        1      -0.00458409      -0.00084325      -0.00163286
S        8.77180079       8.76550499       3.34055501        1      -0.00210664      -0.00236242       0.00036199
S       10.19815198       7.49036808       0.63335382        1      -0.00036208       0.00171952      -0.00078157
S        7.59783740       6.08826588       4.73956731        1      -0.01592454      -0.00371028       0.00054137
S        6.06266190      10.19454702       2.06330147        1      -0.00260448      -0.00114811       0.00108332
Fe       8.11742529       5.42467461       8.11792217        0       0.00366908       0.00021219       0.00730408
Fe       5.41639247       8.14593522       8.12824324        0      -0.00237488      -0.01060387      -0.00945252
Fe       8.15159517       8.12947983       5.41288069        0      -0.00606002      -0.00585459      -0.00352342
S        7.48213456       7.48819907       7.47463803        1       0.00207279      -0.00182221      -0.00009370
S        6.06460731       8.77934374      10.19315129        1      -0.00230400      -0.00374521      -0.00390171
S        8.77859840      10.19407958       6.06362539        1      -0.00581214      -0.00038301      -0.00668497
S       10.18419799       6.06553535       8.76779843        1       0.00098143       0.00852775       0.00134920
S        8.77031107       8.77186209       8.76712933        1      -0.00073233       0.00181253      -0.00108141
S       10.22083242       7.49268413       6.05658376        1      -0.00400954       0.00027378      -0.00646890
S        7.48543115       6.06019731      10.20312031        1      -0.00092015       0.00350255       0.00631614
S        6.06199714      10.21573886       7.48737868        1      -0.00511311      -0.00734554      -0.00590390
H        5.31953904       5.04772996       6.42809146        0       0.30948442       0.06593428       0.02890400
96
Lattice="10.836 0.0 0.0 0.0 10.836 0.0 0.0 0.0 10.836" Properties=species:S:1:pos:R:3:spacegroup_kinds:I:1:forces:R:3 spacegroup="P a -3" unit_cell=conventional nspins=1 nkpts=8 fermi_level=12.8598 natoms=96 mineral=pyrite rc=0.875 image_index=7 U_eV=0.0 nspin=1 source_file=results/dft_datasets/2026-05-29/pyr_vfe_mlip_band/pyr_vfe_mlip_band_mace.xyz method=MACE-MP-0 vacancy_type=V_Fe energy=-570.9376942208511 pbc="T T T"
Fe      -0.00179886       0.00181761      -0.00269086        0      -0.00098034      -0.00031153      -0.00059494
Fe       2.70620629      -0.00087120       2.70302870        0      -0.00098266      -0.00214831      -0.00157183
Fe      -0.00409157       2.70668429       2.70229224        0      -0.00370146      -0.00054216      -0.00061169
Fe       2.70298819       2.70709052      -0.00310442        0      -0.00331648      -0.00027086      -0.00247186
S        2.06229739       2.06380685       2.06063586        1      -0.00484919      -0.00147423      -0.00217946
S        0.61243661       3.34640621       4.77024834        1      -0.00135178       0.00045745      -0.00239068
S        3.34143691       4.77644112       0.61506310        1      -0.00290920       0.00007563       0.00082570
S        4.77440964       0.61519072       3.34243940        1      -0.00113098       0.00238732       0.00060419
S        3.35313794       3.35352562       3.35046148        1      -0.00358319      -0.00067649      -0.00320013
S        4.77352264       2.06261760       0.63527055        1      -0.00514493      -0.00031483       0.00385471
S        2.05692264       0.64255525       4.76655690        1       0.00192037      -0.00125729      -0.00279964
S        0.64168434       4.77049802       2.05460337        1      -0.00213846      -0.00012925       0.00202167
Fe      -0.00127586       0.00114530       5.41517014        0      -0.00143383      -0.00023949      -0.00318199
Fe       2.70418799       0.00827881       8.12285859        0      -0.00099532       0.00030715      -0.00429205
Fe      -0.01060671       2.71268730       8.12415501        0      -0.00134484       0.00008149      -0.00308585
Fe       2.68143676       2.70575042       5.41105574        0       0.00054860       0.00438083      -0.00128802
S        2.06150320       2.07077857       7.48888550        1      -0.00176153       0.00125767      -0.00441017
S        0.63256098       3.34803892      10.19345659        1      -0.00200345       0.00161636      -0.00133402
S        3.19494046       4.74081874       6.08419908        1       0.01313885       0.00583614      -0.00231807
S        4.77250641       0.63813487       8.76528457        1      -0.00170778      -0.00091861      -0.00338433
S        3.32787530       3.34059946       8.76522325        1      -0.00063405      -0.00063267      -0.00216713
S        4.79241418       2.07676603       6.03485037        1      -0.00173508       0.00545386       0.00201552
S        2.06598110       0.64074203      10.19581681        1      -0.00214728      -0.00099598      -0.00348447
S        0.61205628       4.78525398       7.49659041        1      -0.00068639      -0.00062572      -0.00593901
Fe      -0.00298002       5.41917638      -0.00301626        0      -0.00019885       0.00105949       0.00022060
Fe       2.70787302       5.41671167       2.68273190        0       0.00103015      -0.00101599       0.00172025
Fe       0.00689496       8.12596471       2.70429435        0      -0.00030908      -0.00259810       0.00054386
Fe       2.70586106       8.13396226      -0.00644901        0       0.00065553      -0.00127861      -0.00084874
S        2.06995029       7.49170255       2.06213938        1       0.00116554      -0.00369961       0.00058669
S        0.64048117       8.77134566       4.77125731        1       0.00023126      -0.00242573      -0.00057155
S        3.34594231      10.20039514       0.63271542        1      -0.00228780      -0.00217763      -0.00189018
S        4.75252236       6.08436746       3.23389954        1       0.00155306      -0.00383244       0.01291041
S        3.34285250       8.76482748       3.33092544        1       0.00033733      -0.00171832      -0.00030004
S        4.77921475       7.50779442       0.61588092        1      -0.00020427      -0.00171998       0.00226983
S        2.08313806       6.03992216       4.78256742        1       0.00228461      -0.00351187       0.00338525
S        0.63749927      10.19925373       2.06450789        1      -0.00164408      -0.00274667      -0.00055630
Fe      -0.00006450       5.41936774       5.41234643        0      -0.00330547       0.00017666      -0.00263712
Fe       2.69117718       5.42163195       8.12473694        0      -0.00014425      -0.00101917      -0.00392460
Fe       0.00127292       8.13196105       8.12695029        0       0.00056715       0.00215794      -0.00311253
Fe       2.70942678       8.15048910       5.41435494        0       0.00124829      -0.00276480      -0.00155423
S        2.06928546       7.50660509       7.49206977        1      -0.00136472       0.00036032      -0.00291328
S        0.63587282       8.77071968      10.19496050        1       0.00118383       0.00002147      -0.00033644
S        3.33563442      10.22493759       6.05123115        1       0.00211846      -0.00283905      -0.00262469
S        4.76877651       6.07586507       8.78318841        1      -0.00628534       0.00102077      -0.00304678
S        3.33941857       8.77597958       8.76497153        1       0.00051620      -0.00032691      -0.00387304
S        4.74451529       7.61542985       6.08577748        1       0.00311831      -0.02540527      -0.00780728
S        2.06173485       6.06381426      10.19595851        1      -0.00159904       0.00045040      -0.00099476
S        0.63611168      10.20261112       7.48734600        1      -0.00183331       0.00081019      -0.00428823
Fe       5.41819531      -0.00048004      -0.00176751        0      -0.00369795      -0.00170783      -0.00058791
Fe       8.12833205      -0.00785807       2.70773284        0      -0.00314071      -0.00073392       0.00085764
Fe       5.41590479       2.68262979       2.70362799        0      -0.00410687       0.00472059       0.00552628
Fe       8.12364387       2.71075749       0.00099859        0      -0.00453196      -0.00207831       0.00126358
S        7.49033406       2.06656564       2.06465511        1      -0.00643471      -0.00103898       0.00182695
S        6.08700992       3.22991223       4.73994155        1      -0.00770058       0.01902225       0.00846083
S        8.76559104       4.77804688       0.63645554        1      -0.00195210      -0.00115185       0.00200734
S       10.19697433       0.63591602       3.34323953        1      -0.00191514      -0.00107472      -0.00066577
S        8.76332676       3.33381027       3.33854698        1      -0.00525873       0.00069677       0.00023741
S       10.19498591       2.06933693       0.63381889        1      -0.00337156       0.00016846      -0.00159910
S        7.49893414       0.61131378       4.77875339        1      -0.00604123       0.00096725      -0.00171691
S        6.03421977       4.78985642       2.07892922        1      -0.00356699       0.00206834       0.00272836
Fe       5.41847169      -0.00416853       5.41349994        0      -0.00224912      -0.00033234      -0.00130788
Fe       8.13086769       0.00006827       8.12821243        0      -0.00337994      -0.00115754      -0.00279210
Fe       5.41334626       2.69254487       8.14002263        0      -0.00087523       0.00220422       0.00367079
Fe       8.12209313       2.68877896       5.41324588        0      -0.00658168       0.00284940      -0.00005109
S        7.49166496       2.06331034       7.49361248        1      -0.00161845       0.00018019       0.00050099
S        6.04793353       3.33266807      10.22050158        1      -0.00558453       0.00036559       0.00643930
S        8.75108123       4.79886447       6.04153231        1      -0.00355018      -0.00033286       0.00249391
S       10.19614068       0.64040247       8.76637886        1      -0.00140531      -0.00052397      -0.00150853
S        8.75973406       3.35435430       8.75772857        1       0.00257298      -0.00305626       0.00248164
S       10.19117505       2.06852406       6.05833679        1      -0.00336387       0.00110505      -0.00420224
S        7.48972784       0.63914260      10.19891710        1      -0.00369938      -0.00293456      -0.00112782
S        6.09703171       4.72104135       7.58320552        1       0.01771720       0.00174291       0.03326994
Fe       5.41292626       5.42214520      -0.00511632        0      -0.00448502       0.00156608       0.00394639
Fe       8.14831473       5.41749391       2.70628749        0      -0.00416691      -0.00030001       0.00085645
Fe       5.41924884       8.12531391       2.68753252        0      -0.00137889      -0.00214226       0.00130584
Fe       8.12811960       8.12935461      -0.00140364        0      -0.00022374       0.00107878       0.00233880
S        7.50301899       7.49305329       2.06652114        1      -0.00232047      -0.00097495       0.00188320
S        6.04692484       8.74804280       4.79858348        1      -0.00524013      -0.00684284      -0.00001996
S        8.76822496      10.19801030       0.63516350        1      -0.00088125       0.00095321       0.00118000
S       10.22295156       6.05392676       3.33164851        1      -0.00392826      -0.00065777       0.00133194
S        8.77084198       8.76485711       3.34191090        1      -0.00210837      -0.00238007       0.00180673
S       10.19840868       7.49062459       0.63476908        1       0.00017798       0.00030012      -0.00018896
S        7.60086230       6.08922587       4.74040117        1      -0.01542489      -0.00549584       0.00324986
S        6.06161660      10.19376065       2.06450287        1      -0.00279058      -0.00092733       0.00096993
Fe       8.12927348       5.42388054       8.13082703        0       0.00892944       0.00071779       0.01058359
Fe       5.41636166       8.14273396       8.12766179        0      -0.00166585      -0.00533253      -0.00647436
Fe       8.15114561       8.12786450       5.41484010        0      -0.00671022      -0.00578124      -0.00081621
S        7.48527455       7.48643499       7.47936885        1       0.00140670      -0.00203376       0.00293184
S        6.06413261       8.77824185      10.19292092        1      -0.00157541      -0.00280149      -0.00182543
S        8.77739855      10.19323712       6.06349115        1      -0.00478227      -0.00045216      -0.00386083
S       10.18888264       6.06752515       8.77260124        1       0.00582810       0.00371310      -0.00066308
S        8.77020298       8.77158275       8.76790257        1      -0.00017399       0.00149374       0.00033951
S       10.22107751       7.49216176       6.05734743        1      -0.00506970      -0.00070164      -0.00417199
S        7.48683872       6.06260718      10.21017826        1      -0.00042120       0.00296567       0.00578909
S        6.06097229      10.21333424       7.48723871        1      -0.00401822      -0.00400974      -0.00359054
H        5.53444555       5.11707033       6.39927164        0       0.14685606       0.04978365      -0.01208099
96
Lattice="10.836 0.0 0.0 0.0 10.836 0.0 0.0 0.0 10.836" Properties=species:S:1:pos:R:3:spacegroup_kinds:I:1:forces:R:3 spacegroup="P a -3" unit_cell=conventional nspins=1 nkpts=8 fermi_level=12.8598 natoms=96 mineral=pyrite rc=1.0 image_index=8 U_eV=0.0 nspin=1 source_file=results/dft_datasets/2026-05-29/pyr_vfe_mlip_band/pyr_vfe_mlip_band_mace.xyz method=MACE-MP-0 vacancy_type=V_Fe energy=-570.8830345821639 pbc="T T T"
Fe      -0.00073734       0.00021129      -0.00062028        0       0.00465355      -0.00151241       0.00433819
Fe       2.70781202      -0.00054438       2.70417506        0       0.01001005       0.00873138       0.03631431
Fe      -0.00087575       2.70564452       2.70575857        0       0.01222436       0.03264969       0.01244087
Fe       2.70641935       2.70895827      -0.00242510        0       0.00323096       0.00645414       0.02442468
S        2.07249463       2.07307764       2.07206142        1      -0.06963628      -0.06600621      -0.07094123
S        0.63367965       3.34640767       4.77727349        1      -0.06387966       0.00309851      -0.02591314
S        3.34353963       4.78173765       0.63227428        1       0.00419158      -0.02281350      -0.07137583
S        4.77968685       0.63386649       3.34284958        1      -0.01936190      -0.05933702       0.01339850
S        3.35262663       3.35410422       3.34979327        1       0.06361325       0.06135830       0.05770857
S        4.77252970       2.06861471       0.64075082        1       0.03666545       0.00024398      -0.01190906
S        2.06949881       0.63930470       4.77454691        1      -0.05159586       0.03393578      -0.03520977
S        0.63974067       4.77781028       2.06813159        1       0.03577749      -0.04124661      -0.05740365
Fe       0.00062871      -0.00127975       5.41716844        0      -0.00149543      -0.00086120      -0.01277449
Fe       2.70714632       0.00480139       8.12383681        0       0.01026151       0.00790412      -0.01800977
Fe      -0.00123760       2.71031067       8.12692781        0      -0.03229570      -0.00540215      -0.03365141
Fe       2.69381628       2.71480728       5.41412789        0       0.03278453       0.00871933       0.03142593
S        2.06898536       2.06936149       7.48407157        1       0.00461416       0.01128653       0.03368602
S        0.63605179       3.34746913      10.19775042        1       0.00561280       0.00698582      -0.00996540
S        3.27119739       4.76033365       6.08959834        1      -0.33150880      -0.06486029      -0.06259224
S        4.77610827       0.63598692       8.76265173        1      -0.01181752       0.03281644      -0.01026413
S        3.33661277       3.34244530       8.76581576        1      -0.00922761      -0.02112711       0.00253952
S        4.80293559       2.09036781       6.03003256        1      -0.03302159      -0.06674656       0.04977287
S        2.06966900       0.63849271      10.19840832        1      -0.01602520       0.01256630      -0.01326658
S        0.61635760       4.78394928       7.49014316        1      -0.00037198      -0.04537010       0.01333718
Fe      -0.00409808       5.41829875      -0.00251720        0       0.02608659       0.00100959       0.02167070
Fe       2.71789215       5.41755676       2.69231100        0      -0.02583271       0.04862107       0.03980533
Fe       0.00124635       8.12559722       2.70571518        0       0.03365506      -0.01934682       0.03316347
Fe       2.70798856       8.13198888      -0.00214500        0      -0.01231144      -0.00986130      -0.00512623
S        2.06967998       7.48906019       2.07046533        1       0.00917162       0.00969012      -0.01354179
S        0.63562089       8.76501135       4.77569864        1       0.01631262       0.02026305      -0.01386838
S        3.34673901      10.20073611       0.63662068        1       0.00493192      -0.00948437      -0.01548422
S        4.77016891       6.09075913       3.27840798        1      -0.10133241      -0.05023046      -0.19922024
S        3.34482279       8.76689896       3.34102467        1      -0.04478036       0.01101949      -0.05157874
S        4.78310677       7.50157271       0.62188624        1      -0.04107939       0.01766638      -0.03564655
S        2.09867942       6.04234791       4.80203857        1      -0.05685488      -0.08740043      -0.03909359
S        0.63773408      10.19814099       2.07053951        1       0.00202181       0.00131560      -0.02823195
Fe       0.00235104       5.41688596       5.41558616        0      -0.00334730       0.00791673      -0.02962993
Fe       2.69018423       5.41912516       8.13057070        0       0.04015958      -0.01182292      -0.06129312
Fe      -0.00295901       8.12980429       8.12596044        0       0.01413999      -0.01617150      -0.01172762
Fe       2.70628245       8.14334527       5.41956420        0       0.00954419       0.00859694      -0.02405850
S        2.06380209       7.49604341       7.48805469        1      -0.00065835       0.05690968       0.07209036
S        0.63567844       8.76596742      10.19850208        1       0.00730912       0.01660954      -0.01814952
S        3.34039523      10.21526190       6.04835042        1       0.00982324       0.04383906       0.04921251
S        4.75024513       6.07465000       8.76569324        1       0.09738614       0.03003469       0.10459787
S        3.34090853       8.77214201       8.76585014        1      -0.01744475      -0.00555052      -0.01459028
S        4.74085660       7.55485280       6.06469197        1       0.06918751       0.23835511       0.08618616
S        2.06415421       6.06023393      10.20229223        1      -0.04276325       0.01845597      -0.00337350
S        0.63690552      10.19919497       7.48717502        1      -0.00279585      -0.00428145      -0.00248626
Fe       5.41765745       0.00609760      -0.00366218        0      -0.00156628      -0.03998838       0.02117709
Fe       8.12881953      -0.00224074       2.70784682        0      -0.03427869      -0.03075751       0.01906516
Fe       5.41574934       2.69785707       2.71109959        0       0.05328389      -0.00017646       0.01252456
Fe       8.12652136       2.70822420      -0.00250997        0      -0.02133529       0.02268598       0.04028184
S        7.48865679       2.07030440       2.06621079        1      -0.00241620       0.00896874       0.01025755
S        6.09206834       3.27373378       4.76123528        1      -0.01026253      -0.16587804      -0.12255681
S        8.76348804       4.77746085       0.63398632        1       0.02516739      -0.00078426       0.01976073
S       10.19870689       0.63660328       3.34669109        1      -0.00236725      -0.00102448      -0.00462864
S        8.76694509       3.34231234       3.33881838        1       0.00462468      -0.05095246      -0.02804906
S       10.19874032       2.07010341       0.63735749        1      -0.00051575      -0.01456317      -0.00992092
S        7.49563892       0.61639841       4.78091067        1      -0.00818561      -0.03195337      -0.03705016
S        6.03662850       4.80971043       2.08827651        1      -0.03125573      -0.07725273      -0.08222337
Fe       5.41798985      -0.00319347       5.41633122        0      -0.00083304      -0.00222774      -0.03748359
Fe       8.12787147      -0.00148169       8.12770734        0       0.01673913      -0.02411208      -0.02663685
Fe       5.42343421       2.70610023       8.13186711        0      -0.04654393      -0.21540882       0.12946538
Fe       8.13042459       2.68615123       5.41106031        0      -0.04257055       0.05509415       0.01050694
S        7.50015318       2.05702115       7.48414243        1      -0.01298104       0.03130422       0.06813206
S        6.05458161       3.34182890      10.21893412        1      -0.07367481      -0.08312176       0.09966945
S        8.74540072       4.79247315       6.02092005        1       0.06182154       0.02341949       0.15686755
S       10.19950509       0.63574541       8.76557353        1      -0.00931872       0.00880995       0.01041634
S        8.77331760       3.34151299       8.76455286        1      -0.02836505       0.04145459      -0.06848553
S       10.20219804       2.06885815       6.05455876        1      -0.02420536      -0.01165980       0.02355613
S        7.48928884       0.63773562      10.19749156        1      -0.00824544      -0.00135815      -0.01123767
S        6.10981731       4.71676500       7.65124676        1      -0.02239811       0.21202514      -0.68941922
Fe       5.41518213       5.42356121      -0.01492073        0      -0.04399297       0.03745447       0.16867978
Fe       8.14348703       5.42062476       2.70258951        0      -0.00262950      -0.01000879       0.01831141
Fe       5.41529234       8.12923516       2.68577495        0       0.01092379       0.00356386       0.03945087
Fe       8.12926918       8.12917788      -0.00341550        0      -0.02959571      -0.00563287       0.01837486
S        7.49220524       7.49177998       2.06584821        1       0.05532444       0.03924485      -0.01201515
S        6.03101953       8.73858331       4.79112216        1       0.04095833       0.03301852       0.08642024
S        8.76550396      10.19856657       0.63717644        1       0.01758858      -0.00173628      -0.01091046
S       10.21546287       6.05130962       3.33803659        1       0.03517833       0.03524238       0.00526397
S        8.76571900       8.76571957       3.34430328        1      -0.01109718      -0.01718808      -0.00777582
S       10.19768156       7.48867640       0.63713422        1      -0.00323038      -0.00311671      -0.01380887
S        7.55360708       6.06688781       4.74026340        1       0.16730250       0.10266073       0.03320975
S        6.05821481      10.20090709       2.06934394        1       0.01383250      -0.00930707      -0.03622952
Fe       8.12220187       5.41837734       8.13146854        0       0.25647275       0.01979558       0.09227845
Fe       5.41291473       8.13955566       8.11839863        0      -0.03059015      -0.04831527      -0.01047429
Fe       8.13898427       8.11685765       5.41443640        0      -0.03126273       0.01361529      -0.04934637
S        7.48347733       7.48668225       7.47569606        1      -0.04009196      -0.06032047       0.01322218
S        6.05727807       8.77062865      10.19467847        1       0.03303388       0.05379136      -0.04233502
S        8.76794629      10.19305771       6.05573830        1       0.04124116      -0.03006209       0.03778723
S       10.19633275       6.05994297       8.76449639        1      -0.03479911       0.04180179       0.04662969
S        8.76380574       8.76364205       8.76331911        1       0.03466210       0.04088593       0.02705106
S       10.20217271       7.48909810       6.05122621        1       0.05818419      -0.00333291       0.02911636
S        7.49055100       6.06211309      10.20136721        1      -0.01712491       0.03209417       0.05358008
S        6.05701832      10.20474728       7.48349805        1       0.01106281       0.00711196       0.01339641
H        5.72858284       5.14988590       6.39193529        0       0.11440113      -0.07142381       0.31039827
