96
Lattice="10.836 0.0 0.0 0.0 10.836 0.0 0.0 0.0 10.836" Properties=species:S:1:pos:R:3 spacegroup="P a -3" unit_cell=conventional mineral=pyrite rc=0.5 image_index=4 U_eV=0.0 nspin=1 source_file=results/dft_datasets/2026-05-31/pyr_v6_dimer_complete/results/v6_saddle_final.xyz method=PBE_U0_ONCV geometry=dft_dimer_saddle vacancy_type=V_Fe_SH reaction=S_H_transfer barrier_meV=268.0 barrier_ref=paper_value_relative_to_endA e_endA_ref_eV=-124947.94173 fmax_eV_per_A=0.016481756620703232 note="saddle geometry only; absolute DFT energy not stored in xyz; barrier=268meV from paper (E_saddle - E_endA, PBE U=0 ONCV, QE 7.x, kpts 2x2x2)" pbc="T T T"
Fe       0.00130467       0.00240138      -0.00462543
Fe       2.71315295       0.00441694       2.70367501
Fe       0.00648432       2.71067062       2.70442044
Fe       2.70817974       2.71039814       0.00039529
S        2.07742888       2.07701575       2.07345904
S        0.64776378       3.35082674       4.77611314
S        3.34757781       4.78138201       0.63243791
S        4.78606510       0.63558019       3.34274838
S        3.36461580       3.35626664       3.35369424
S        4.77961226       2.07134343       0.64009404
S        2.07565009       0.64535163       4.77476507
S        0.64297128       4.78239345       2.06429072
Fe       0.00509544       0.00372339       5.41351972
Fe       2.70840435       0.00376494       8.12281545
Fe      -0.00015450       2.71167836       8.12276037
Fe       2.71259673       2.71683555       5.41678118
S        2.07150753       2.06738131       7.48912224
S        0.63610353       3.34873779      10.19576098
S        3.28680070       4.74526585       6.13590910
S        4.77907319       0.63382100       8.76286876
S        3.33973200       3.33709679       8.77708043
S        4.81363956       2.08289189       6.03541976
S        2.07129091       0.63942852      10.19794805
S        0.62061287       4.78377039       7.49183597
Fe      -0.00335661       5.42023466      -0.00727072
Fe       2.72476220       5.42562316       2.69827214
Fe       0.00372341       8.12957532       2.70055549
Fe       2.70993720       8.13228733      -0.00345128
S        2.07265984       7.49659974       2.06627481
S        0.63699845       8.77031861       4.77155357
S        3.34930936      10.20270878       0.63436406
S        4.77418644       6.09769976       3.27370994
S        3.34906151       8.77390595       3.33855070
S        4.78558529       7.50034854       0.61759973
S        2.10950055       6.07550426       4.77765460
S        0.64098878      10.20321989       2.06623852
Fe       0.02780264       5.41925397       5.41227015
Fe       2.68451718       5.41851728       8.14106774
Fe      -0.00363941       8.13093680       8.12137170
Fe       2.70696340       8.14912707       5.41302041
S        2.06467383       7.49658343       7.49000481
S        0.63577235       8.76766537      10.19370829
S        3.34467409      10.22096255       6.04860810
S        4.76991410       6.05061567       8.76276516
S        3.34426744       8.76984827       8.76413117
S        4.74051769       7.56782773       6.06870777
S        2.06470098       6.06305449      10.20390155
S        0.63830358      10.20092638       7.48443893
Fe       5.41967794       0.00345350      -0.00341631
Fe       8.13260675       0.00039658       2.70452170
Fe       5.42421851       2.69876998       2.71321755
Fe       8.12749020       2.71041743      -0.00487903
S        7.49452520       2.07273544       2.06384765
S        6.10243070       3.27437651       4.76302774
S        8.76364024       4.77874451       0.62513446
S       10.20376441       0.64067776       3.34298190
S        8.77440334       3.34486300       3.33763493
S       10.20090273       2.07323488       0.63388775
S        7.50086702       0.61914624       4.77858051
S        6.04469545       4.80665236       2.08908361
Fe       5.42324387      -0.00238833       5.41495308
Fe       8.12917250       0.00073316       8.12418520
Fe       5.41803709       2.70209846       8.14192891
Fe       8.13842283       2.68995740       5.40767374
S        7.49676398       2.06559847       7.48580386
S        6.05415551       3.34280044      10.21293572
S        8.75222274       4.79869292       6.01567725
S       10.19884209       0.63860504       8.76107239
S        8.76403768       3.34894599       8.75400044
S       10.20748810       2.07421003       6.05269725
S        7.49022333       0.63875123      10.19369347
S        6.02659433       4.72970997       7.55613903
Fe       5.41701032       5.42158295      -0.00868746
Fe       8.15115166       5.42255482       2.69838572
Fe       5.41900052       8.13086436       2.68712303
Fe       8.12926825       8.12950041      -0.00802695
S        7.49600888       7.49288113       2.06095827
S        6.03534274       8.74042771       4.78859612
S        8.76690605      10.19977239       0.63152063
S       10.22466153       6.05499233       3.33223731
S        8.76791595       8.76850754       3.33873764
S       10.19803886       7.49132767       0.63068901
S        7.56758442       6.06904829       4.73154153
S        6.06234403      10.20394151       2.06665220
Fe       8.11326207       5.42587092       8.11027675
Fe       5.41589580       8.14379106       8.11668187
Fe       8.14255680       8.11793715       5.40932254
S        7.48106491       7.48667778       7.46840088
S        6.05830462       8.76941910      10.19228445
S        8.77094589      10.19767879       6.05101281
S       10.18515796       6.05975470       8.75896392
S        8.76170605       8.76445791       8.75590505
S       10.20766478       7.49310292       6.04837206
S        7.48633711       6.05909910      10.18856221
S        6.05857456      10.20327642       7.48435322
H        4.94073897       4.95604284       6.36618517
