96
Lattice="10.832 0.0 0.0 0.0 10.832 0.0 0.0 0.0 10.832" Properties=species:S:1:pos:R:3:spacegroup_kinds:I:1:forces:R:3 spacegroup="P a -3" unit_cell=conventional nspins=1 nkpts=8 fermi_level=12.9994 natoms=96 mineral=pyrite rc=0.0 image_index=0 U_eV=0.0 nspin=1 source_file=results/dft_datasets/2026-05-01/pyr_prod_neb_W3/prod_essentials/relaxed_endA.xyz method=PBE_U0_ONCV geometry=dft_relaxed vacancy_type=V_S2_dimer energy=-128055.54043539795 pbc="T T T"
Fe      -0.01002306      -0.00162407       0.01030915        0      -0.00083715      -0.00963341       0.00093665
Fe       2.69856921      -0.00571622       2.71936242        0       0.00428012      -0.02045235      -0.00041960
Fe      -0.00697820       2.70518799       2.71741644        0      -0.01420432      -0.01104315      -0.00224123
Fe       2.69695200       2.70316175       0.01161276        0       0.00103101      -0.00370059       0.00641259
S        2.06164058       2.06510223       2.07979030        1      -0.00423666      -0.00330644      -0.00506584
S        0.63235825       3.33798823       4.78526800        1       0.00086209      -0.00041883       0.00822933
S        3.34111501       4.77464306       0.64212832        1       0.00473083      -0.00098036      -0.00434105
S        4.76848412       0.63375765       3.35587344        1      -0.00351727       0.00310795       0.00146810
S        3.33950249       3.34261664       3.35410866        1      -0.01362016      -0.00021932      -0.00863685
S        4.77060509       2.06956107       0.64505298        1      -0.00905568       0.00021494       0.00505607
S        2.06277397       0.62842427       4.78835891        1      -0.00360751      -0.00355789      -0.00000926
S        0.62969642       4.77457994       2.07748179        1      -0.00211396      -0.00282976       0.00472517
Fe      -0.00650243      -0.00825199       5.42856542        0      -0.00238907      -0.00022651      -0.00859237
Fe       2.69944331      -0.01182869       8.13593261        0      -0.00079756       0.00933285      -0.00749579
Fe      -0.00338135       2.70928345       8.13534697        0       0.00415259       0.00185119      -0.00411119
Fe       2.70224872       2.69683065       5.42395989        0       0.00308918      -0.00143210       0.01154528
S        2.07078938       2.05835550       7.49956807        1      -0.00159331      -0.00826455       0.00304521
S        0.62924455       3.34434353      10.20812153        1      -0.00542323       0.00326170       0.01373303
S        3.31830041       4.75802035       6.06825728        1      -0.01120178      -0.00400835      -0.00369236
S        4.75864750       0.63289223       8.78157009        1      -0.00154498       0.00270506       0.00564331
S        3.33393876       3.35204820       8.78454001        1      -0.00736467      -0.00079678      -0.00370342
S        4.77051119       2.06210716       6.06334821        1      -0.00307710       0.00557955       0.00304547
S        2.06128138       0.63208764      10.20675420        1      -0.00198155      -0.00562223      -0.00189362
S        0.63109218       4.76868064       7.48916962        1      -0.00783415      -0.00137194      -0.00057618
Fe      -0.01547882       5.41565272       0.01078593        0      -0.00882737       0.00804858      -0.00814217
Fe       2.69615427       5.41183759       2.71548824        0       0.00233096      -0.00160823       0.00780638
Fe      -0.00927709       8.11896418       2.71786581        0       0.00502239       0.00717106       0.00146013
Fe       2.70470812       8.11442219       0.00584161        0       0.00223969      -0.01306223      -0.00821596
S        2.06169568       7.48201940       2.07718622        1      -0.00005322      -0.01233718      -0.00031393
S        0.63043436       8.75439161       4.78745579        1       0.00044197       0.00365482      -0.00397493
S        3.33672072      10.18691806       0.64900230        1       0.00779584      -0.00146167      -0.00849518
S        4.76667538       6.05320139       3.35633109        1      -0.00624110      -0.00531267       0.00048362
S        3.33722567       8.75520403       3.35452465        1       0.01036849       0.00423975      -0.00067389
S        4.76540439       7.46426272       0.62232683        1       0.01334737       0.00191573      -0.00785035
S        2.06507790       6.04747655       4.77863682        1       0.00418421      -0.00006299      -0.00156503
S        0.62798902      10.19003592       2.08085785        1       0.00394227      -0.00502034      -0.00631360
Fe      -0.00353103       5.40873599       5.43009275        0      -0.01496613       0.00721837       0.00276471
Fe       2.63044771       5.38397747       8.10291796        0       0.00876335       0.00875332       0.01128611
Fe      -0.00559145       8.12085346       8.13839253        0      -0.00692450       0.00511212      -0.00597627
Fe       2.69802261       8.11365832       5.42795020        0       0.00958970      -0.00860214      -0.00270120
S        2.05517400       7.46825395       7.48779733        1      -0.00678437       0.00767089      -0.00172367
S        0.63215817       8.75732208      10.20768372        1       0.00112511      -0.00132206      -0.01164555
S        3.33537120      10.18200817       6.06720715        1      -0.00361754      -0.00171235       0.00071040
S        3.35838415       8.72255213       8.77923360        1      -0.00363117       0.00030210       0.00209339
S        4.76139612       7.47922446       6.09279576        1       0.00090271       0.00872401       0.00513886
S        2.06816421       6.04677398      10.19825801        1      -0.00430763      -0.00968303       0.00382426
S        0.63239594      10.18610476       7.49795644        1      -0.00132566       0.00725822      -0.01116013
Fe       5.40561731       0.00057734       0.01336123        0       0.00472543       0.00032679       0.00199055
Fe       8.11300781      -0.00525332       2.71696743        0       0.01387419       0.00030750       0.00317094
Fe       5.40748341       2.70472101       2.72380867        0       0.00598861       0.00640745       0.00202603
Fe       8.11258034       2.70943794       0.00657723        0      -0.00436959      -0.00346122       0.00157326
S        7.47540455       2.06696643       2.07842850        1      -0.00205277       0.00112280       0.00052785
S        6.04854587       3.32992230       4.78517520        1      -0.00471257      -0.00518746       0.00380472
S        8.74326835       4.78245428       0.64111431        1       0.00603027       0.00439813      -0.00262201
S       10.18443752       0.63449233       3.35613312        1       0.00460716      -0.01001907       0.00047848
S        8.75481203       3.34043717       3.35370190        1       0.00203220       0.00480616       0.00387799
S       10.18223510       2.07051555       0.64707521        1       0.00265826      -0.01014994       0.00248317
S        7.47869581       0.62741723       4.78555057        1       0.00441356       0.00176043       0.01232844
S        6.04765003       4.77283523       2.08816574        1      -0.00020337       0.00507176       0.00927705
Fe       5.40746380      -0.01678058       5.43334362        0       0.00674940       0.00111123       0.00477917
Fe       8.11221293      -0.00957299       8.13496230        0      -0.00042835       0.00881323      -0.00668950
Fe       5.40475442       2.71856062       8.12945302        0       0.00335220      -0.00237159      -0.00696872
Fe       8.12039736       2.69476963       5.42236654        0      -0.00390088       0.00275159       0.00028076
S        7.48116884       2.05882986       7.49054640        1       0.00335786       0.00009513       0.00802158
S        6.03592265       3.36445287      10.20554107        1       0.00615676      -0.00496943       0.00224689
S        8.75627812       4.76617742       6.06041373        1      -0.00108501       0.00408445       0.00225614
S       10.18381228       0.63469644       8.77497906        1      -0.00083792      -0.00219289      -0.00865973
S        8.74875977       3.34304422       8.77433125        1       0.01137919       0.00086286      -0.00688413
S       10.18874332       2.06117098       6.06261953        1       0.00078342       0.00548339       0.00444852
S        7.47347997       0.64029540      10.20471371        1       0.00578447       0.00220601       0.00379469
S        6.07798736       4.73586272       7.46462297        1       0.00003702      -0.00755364      -0.00995094
Fe       5.39834928       5.40597195       0.03676443        0      -0.02023561       0.00169616      -0.01825303
Fe       8.11121280       5.41075123       2.72203408        0      -0.01280384       0.00000771       0.00707310
Fe       5.40672952       8.11960249       2.71840981        0      -0.00052168       0.00099116      -0.00340337
Fe       8.11364054       8.12547151       0.01002120        0      -0.01284317      -0.00450843      -0.00388237
S        7.47354244       7.48040446       2.07900720        1       0.00356895       0.00688181       0.00195198
S        6.04728088       8.74672119       4.78410784        1      -0.00403149      -0.00718932      -0.00277525
S        8.75221338      10.19158269       0.64883972        1       0.00567417       0.00359389       0.00185994
S       10.18401102       6.04911978       3.35432067        1      -0.00381757       0.00166170       0.00598321
S        8.75228088       8.75517661       3.35258454        1       0.00135394       0.00031419      -0.00091531
S       10.18182586       7.48243290       0.64881115        1       0.01090251      -0.00754465      -0.00301153
S        7.47838279       6.04398345       4.79304248        1       0.00449403       0.00657894      -0.00956270
S        6.04343626      10.18787571       2.08170092        1       0.00322956       0.00559138      -0.00417419
Fe       5.40214248       5.40951327       5.46480205        0       0.00568060       0.00131563       0.01309103
Fe       8.09041093       5.41274425       8.13272541        0      -0.00962621      -0.00591405       0.00103050
Fe       5.45771768       8.18716521       8.12498604        0      -0.00785806      -0.01297841       0.00918604
Fe       8.11874572       8.11435973       5.42511125        0      -0.00256159       0.00141873      -0.00811054
S        7.48356136       7.50076708       7.48637989        1       0.00847333       0.00682037      -0.00063198
S        6.05645475       8.77587880      10.20685542        1       0.00932436       0.00647738       0.00393430
S        8.75665297      10.18434013       6.06291601        1      -0.00817431       0.00758938       0.00303570
S       10.17834574       6.05844005       8.78515185        1       0.00324268      -0.00364042       0.00305370
S        8.76433557       8.75490918       8.77785706        1       0.00529673       0.00591379      -0.00609120
S       10.18810647       7.47785456       6.06627991        1       0.00636091       0.00896364      -0.00753308
S        7.42638988       6.06205039      10.19662774        1      -0.00731710      -0.00926651       0.00727391
S        6.05181604      10.18297196       7.49248850        1       0.00882763       0.01717703      -0.00757498
H        4.81409754       5.82095201      -1.42186871        0       0.01190035       0.00627041       0.02297692
