96
Lattice="10.836 0.0 0.0 0.0 10.836 0.0 0.0 0.0 10.836" Properties=species:S:1:pos:R:3:spacegroup_kinds:I:1 spacegroup="P a -3" unit_cell=conventional nspins=1 nkpts=8 fermi_level=12.8598 natoms=96 mineral=pyrite rc=0.0 image_index=0 U_eV=0.0 nspin=1 source_file=results/dft_datasets/2026-05-29/pyr_vfe_mlip_band/pyr_vfe_mlip_band_chgnet.xyz method=CHGNet vacancy_type=V_Fe note="geometry_only: CHGNet MLIP energies not stored in source file (all frames show identical energy in source)" pbc="T T T"
Fe       0.00062036       0.00073728      -0.00021130        0
Fe       2.71003974       0.00295908       2.70619574        0
Fe       0.00341564       2.70673105       2.70682231        0
Fe       2.70829270       2.70812874       0.00148161        0
S        2.07268088       2.07219430       2.07235796        1
S        0.63463282       3.34544913       4.77388700        1
S        3.35250191       4.77898156       0.63125289        1
S        4.78477393       0.63382716       3.34690215        1
S        3.36030424       3.35252309       3.34931816        1
S        4.78026178       2.06805375       0.64294232        1
S        2.07150377       0.63966731       4.77605708        1
S        0.64132164       4.77872189       2.06537159        1
Fe       0.00251715       0.00409810       5.41770140        0
Fe       2.70907224       0.00123752       8.12568923        0
Fe       0.00251007       2.70947894       8.12777571        0
Fe       2.70453119       2.71379815       5.41762282        0
S        2.07144721       2.06268238       7.49448680        1
S        0.63850871       3.34671142      10.19826438        1
S        3.18475338       4.72618259       6.11923533        1
S        4.78144125       0.63380199       8.76714168        1
S        3.35185770       3.33584720       8.77897888        1
S        4.81507990       2.09059918       6.04352687        1
S        2.07042649       0.63649503      10.20025448        1
S        0.61706613       4.78141865       7.49417113        1
Fe       0.00366238       5.41834264      -0.00609747        0
Fe       2.71760104       5.42308551       2.69644431        0
Fe       0.00214495       8.12801114       2.70401130        0
Fe       2.71216324       8.12885359      -0.00480137        0
S        2.07014980       7.49509112       2.06385796        1
S        0.63370749       8.77184598       4.77576613        1
S        3.34882533      10.19909442       0.63680492        1
S        4.77130812       6.09514327       3.28114740        1
S        3.34794541       8.77219796       3.33995670        1
S        4.78764962       7.49560461       0.62073810        1
S        2.07030685       6.08575514       4.76134993        1
S        0.63749792      10.20032153       2.07003264        1
Fe       0.01492041       5.42081829       5.41243882        0
Fe       2.70413281       5.41256599       8.12989934        0
Fe       0.00242502       8.12958047       8.12704155        0
Fe       2.70542904       8.14581582       5.41687468        0
S        2.07018448       7.49938724       7.49355475        1
S        0.63759202       8.76633092      10.19750737        1
S        3.34585702      10.21964208       6.05205083        1
S        4.80596722       6.03306477       8.74563190        1
S        3.35192860       8.76701462       8.76663839        1
S        4.74640125       7.56480214       6.07566642        1
S        2.07334848       6.05989193      10.20001301        1
S        0.63824970      10.19994816       7.48853081        1
Fe       5.41883162      -0.00062887       0.00127968        0
Fe       8.13028477      -0.00124635       2.71040317        0
Fe       5.42156366       2.69701603       2.71914289        0
Fe       8.12815328       2.70718083       0.00224082        0
S        7.49169683       2.07028131       2.07028073        1
S        6.09573697       3.28239298       4.76911244        1
S        8.76665603       4.77778537       0.63509294        1
S       10.19886569       0.63831847       3.34732401        1
S        8.77015169       3.34379493       3.34422022        1
S       10.19882359       2.07049608       0.63743351        1
S        7.49796348       0.62053679       4.78469044        1
S        6.04487776       4.80498053       2.09741629        1
Fe       5.42041408      -0.00235173       5.41911408        0
Fe       8.13024141       0.00087555       8.13035518        0
Fe       5.42493998       2.70557527       8.14984888        0
Fe       8.13341037       2.69251348       5.41537549        0
S        7.49718139       2.06905485       7.49368742        1
S        6.05508929       3.34036128      10.21960128        1
S        8.74772346       4.79937130       6.02628966        1
S       10.19864256       0.63725971       8.76589654        1
S        8.76978927       3.34734339       8.76569559        1
S       10.20201360       2.07251192       6.05853926        1
S        7.48930881       0.63729318      10.19939664        1
S        6.07476464       4.74393177       7.56226589        1
Fe       5.41966879       5.41800986       0.00319311        0
Fe       8.15022466       5.42070788       2.70676472        0
Fe       5.41643592       8.12971751       2.69265457        0
Fe       8.13182485       8.12818776       0.00054416        0
S        7.49497499       7.49117716       2.06910097        1
S        6.03396100       8.73731998       4.79365220        1
S        8.76546067      10.19826591       0.63785904        1
S       10.21411355       6.05289350       3.33442746        1
S        8.76553428       8.76631996       3.34694016        1
S       10.19937922       7.48926089       0.63526402        1
S        7.55759222       6.06583113       4.74524029        1
S        6.06030143      10.20037898       2.07098875        1
Fe       8.12490060       5.42025065       8.13814304        0
Fe       5.42187224       8.14218351       8.12119223        0
Fe       8.14368846       8.11810683       5.41844335        0
S        7.48620602       7.48337315       7.48189567        1
S        6.06145307       8.76650130      10.19669491        1
S        8.76786841      10.19625930       6.05818979        1
S       10.19524922       6.06347047       8.76738530        1
S        8.76393867       8.76350534       8.76292212        1
S       10.20372558       7.49246010       6.05426260        1
S        7.49315024       6.05631337      10.20213333        1
S        6.05872665      10.20231991       7.48959194        1
H        4.44406460       5.10741729       5.68611415        0
96
Lattice="10.836 0.0 0.0 0.0 10.836 0.0 0.0 0.0 10.836" Properties=species:S:1:pos:R:3:spacegroup_kinds:I:1 spacegroup="P a -3" unit_cell=conventional nspins=1 nkpts=8 fermi_level=12.8598 natoms=96 mineral=pyrite rc=0.125 image_index=1 U_eV=0.0 nspin=1 source_file=results/dft_datasets/2026-05-29/pyr_vfe_mlip_band/pyr_vfe_mlip_band_chgnet.xyz method=CHGNet vacancy_type=V_Fe note="geometry_only: CHGNet MLIP energies not stored in source file (all frames show identical energy in source)" pbc="T T T"
Fe       0.00668243       0.00236508       0.00220159        0
Fe       2.70785663      -0.00604391       2.70093279        0
Fe       0.00394541       2.69592835       2.69718127        0
Fe       2.70559692       2.69973836      -0.00656004        0
S        2.07595060       2.07754192       2.06954186        1
S        0.63972536       3.35409590       4.78525575        1
S        3.35120910       4.79367006       0.63346493        1
S        4.79380780       0.62776522       3.35130961        1
S        3.35050422       3.35739672       3.34082066        1
S        4.78717052       2.06372429       0.66248240        1
S        2.07348953       0.66895214       4.78142338        1
S        0.65376509       4.78530976       2.06779105        1
Fe       0.00098910       0.00921992       5.41440428        0
Fe       2.69643630       0.00396297       8.11341965        0
Fe       0.00986355       2.71080864       8.13739521        0
Fe       2.72500044       2.72739031       5.40877020        0
S        2.07766701       2.06938049       7.49684507        1
S        0.64506143       3.34166720      10.20241302        1
S        3.31594586       4.73386757       6.11445412        1
S        4.79224819       0.64066438       8.76926674        1
S        3.35198503       3.32793623       8.78999450        1
S        4.80921899       2.05816504       6.06359122        1
S        2.07744587       0.64265810      10.20221792        1
S        0.62045085       4.79322899       7.49102364        1
Fe       0.01064515       5.42066177      -0.00671738        0
Fe       2.71733555       5.43863831       2.68480977        0
Fe      -0.00018761       8.12503110       2.69836493        0
Fe       2.72298210       8.13588267      -0.00833246        0
S        2.07735014       7.49604558       2.05605167        1
S        0.63229760       8.77850884       4.78535346        1
S        3.34411418      10.20080526       0.63419710        1
S        4.75719813       6.09775558       3.25967140        1
S        3.33282796       8.78198796       3.33608868        1
S        4.79298551       7.50475489       0.61721195        1
S        2.01616195       6.10755231       4.74137991        1
S        0.64474868      10.20032696       2.07313934        1
Fe      -0.00044435       5.43255211       5.41848041        0
Fe       2.71979281       5.42145388       8.13303853        0
Fe       0.00765138       8.13835499       8.13582512        0
Fe       2.69163178       8.16942118       5.40578291        0
S        2.06397752       7.49788462       7.49078831        1
S        0.64046889       8.76492966      10.19473514        1
S        3.32891408      10.23707264       6.04855479        1
S        4.78806235       6.04900148       8.78604508        1
S        3.34821927       8.76505643       8.76383198        1
S        4.72593631       7.59806611       6.08779091        1
S        2.07683021       6.04866095      10.18419265        1
S        0.63795697      10.20402344       7.49977099        1
Fe       5.42029189      -0.00249414       0.00441429        0
Fe       8.13951897      -0.00496720       2.70911992        0
Fe       5.43391870       2.70517431       2.74243971        0
Fe       8.12147066       2.69653364       0.00465368        0
S        7.50068278       2.06420003       2.07090210        1
S        6.11773325       3.22783093       4.76866668        1
S        8.76261228       4.78860448       0.64680014        1
S       10.21063399       0.63688138       3.34027737        1
S        8.78197401       3.32791751       3.33297191        1
S       10.21105794       2.07243702       0.64206921        1
S        7.50996602       0.60137559       4.79516609        1
S        6.06428038       4.78348676       2.09436831        1
Fe       5.42532941      -0.00010583       5.42510069        0
Fe       8.14021702       0.00968538       8.13997858        0
Fe       5.43566542       2.69799697       8.16113015        0
Fe       8.13450971       2.69245667       5.42214290        0
S        7.51863260       2.05883068       7.50837114        1
S        6.05377836       3.32753764      10.24423414        1
S        8.75629885       4.77581028       6.05177092        1
S       10.20161512       0.64131177       8.76263160        1
S        8.78160342       3.34273776       8.77640238        1
S       10.20699013       2.07627679       6.04657781        1
S        7.50487382       0.63115844      10.20426092        1
S        6.11075662       4.72929180       7.63245080        1
Fe       5.41419304       5.41892159       0.01565993        0
Fe       8.12940095       5.40866290       2.71206644        0
Fe       5.42748363       8.13013033       2.71474843        0
Fe       8.14317479       8.13144453       0.01029008        0
S        7.50417840       7.49876679       2.06739641        1
S        6.05258307       8.74596770       4.77670627        1
S        8.76984441      10.19752864       0.63812215        1
S       10.21667471       6.05063868       3.32498235        1
S        8.77183544       8.75912509       3.34132973        1
S       10.20832605       7.49777443       0.63192833        1
S        7.58345335       6.05679992       4.75432110        1
S        6.05102000      10.19139042       2.07769580        1
Fe       8.11452354       5.41011510       8.14051239        0
Fe       5.41788899       8.13119392       8.11485674        0
Fe       8.11156672       8.10230407       5.40801105        0
S        7.49022328       7.49117862       7.49729618        1
S        6.05471051       8.76315595      10.18349403        1
S        8.76664720      10.18231248       6.04983663        1
S       10.19196804       6.05177574       8.76276262        1
S        8.76863801       8.76309217       8.76546579        1
S       10.20166330       7.49553444       6.04892855        1
S        7.50277080       6.04699975      10.21469545        1
S        6.04817922      10.20391242       7.49131960        1
H        4.56076273       5.12489818       5.69719627        0
96
Lattice="10.836 0.0 0.0 0.0 10.836 0.0 0.0 0.0 10.836" Properties=species:S:1:pos:R:3:spacegroup_kinds:I:1 spacegroup="P a -3" unit_cell=conventional nspins=1 nkpts=8 fermi_level=12.8598 natoms=96 mineral=pyrite rc=0.25 image_index=2 U_eV=0.0 nspin=1 source_file=results/dft_datasets/2026-05-29/pyr_vfe_mlip_band/pyr_vfe_mlip_band_chgnet.xyz method=CHGNet vacancy_type=V_Fe note="geometry_only: CHGNet MLIP energies not stored in source file (all frames show identical energy in source)" pbc="T T T"
Fe       0.00375373       0.00232426       0.00012127        0
Fe       2.71077225      -0.00870418       2.70102321        0
Fe       0.00160032       2.69776155       2.69490176        0
Fe       2.69857723       2.69684166      -0.00361459        0
S        2.07444722       2.07534893       2.07214464        1
S        0.64321733       3.36109964       4.78547444        1
S        3.34746452       4.79236244       0.63419409        1
S        4.79553140       0.62682206       3.34313149        1
S        3.34997948       3.35343222       3.34402350        1
S        4.78189421       2.06777910       0.65532055        1
S        2.07603829       0.66520895       4.78263516        1
S        0.65750069       4.78628245       2.06227471        1
Fe       0.00455632       0.00735726       5.41337759        0
Fe       2.69648804       0.00312392       8.11195973        0
Fe      -0.00135384       2.70530206       8.13476098        0
Fe       2.73677500       2.71683919       5.41466334        0
S        2.07283789       2.06388591       7.49704557        1
S        0.63701578       3.33891351      10.19976638        1
S        3.33021857       4.71349138       6.15413427        1
S        4.78628905       0.64425116       8.76890019        1
S        3.34262657       3.33191327       8.79497888        1
S        4.80779830       2.05445476       6.06249294        1
S        2.07426160       0.64176610      10.20204961        1
S        0.62123509       4.79323007       7.49392951        1
Fe      -0.00219133       5.42033738      -0.00497385        0
Fe       2.72297629       5.43360669       2.68663729        0
Fe       0.00015655       8.12321967       2.69505239        0
Fe       2.71218395       8.13575754      -0.00277929        0
S        2.07908155       7.49323606       2.05729902        1
S        0.63984335       8.77346213       4.78625274        1
S        3.34191024      10.20081129       0.63169786        1
S        4.77310432       6.08804382       3.26379146        1
S        3.33900082       8.77946253       3.33692807        1
S        4.79283961       7.50943216       0.62152884        1
S        2.07292080       6.10644078       4.74160875        1
S        0.64352135      10.19951487       2.07133950        1
Fe       0.01182837       5.41551900       5.41342481        0
Fe       2.70247000       5.41596042       8.13941114        0
Fe       0.00726960       8.13748717       8.12685899        0
Fe       2.70229843       8.15779635       5.40105350        0
S        2.06615778       7.49335791       7.49104579        1
S        0.63819676       8.76447603      10.19347188        1
S        3.33119856      10.23219439       6.05055695        1
S        4.78638203       6.06030628       8.80291605        1
S        3.34706696       8.76352087       8.76203312        1
S        4.73312271       7.58905793       6.08692117        1
S        2.06992829       6.04826831      10.18999717        1
S        0.63826571      10.20373935       7.49559403        1
Fe       5.41427749       0.00313625      -0.00507785        0
Fe       8.14028769      -0.00134069       2.70763255        0
Fe       5.43069376       2.69690533       2.73317396        0
Fe       8.11724466       2.69743060      -0.00105378        0
S        7.49824536       2.06810213       2.06620931        1
S        6.11988316       3.22188763       4.75395068        1
S        8.75939960       4.79132136       0.63645886        1
S       10.21091067       0.63852265       3.33574403        1
S        8.78426708       3.33226507       3.32663520        1
S       10.20625885       2.07451400       0.63955983        1
S        7.51226576       0.60250020       4.79387643        1
S        6.06532521       4.78957441       2.09803762        1
Fe       5.42798029      -0.00032174       5.43110447        0
Fe       8.13650986       0.00686595       8.13546251        0
Fe       5.43826805       2.72276773       8.15301385        0
Fe       8.13985608       2.69213815       5.41771174        0
S        7.51108485       2.06866807       7.50661121        1
S        6.05193290       3.33588390      10.24059380        1
S        8.76228216       4.78378396       6.04225660        1
S       10.20048642       0.63940164       8.76070160        1
S        8.77479947       3.34494118       8.76477045        1
S       10.20582007       2.07743843       6.04430301        1
S        7.50030419       0.63393962      10.19892401        1
S        6.10343815       4.73971941       7.63747741        1
Fe       5.41393226       5.42871984       0.01821884        0
Fe       8.13507402       5.41339165       2.70500787        0
Fe       5.43393669       8.13356318       2.71476158        0
Fe       8.13899582       8.13303235       0.00382189        0
S        7.50948181       7.50431606       2.06267325        1
S        6.05847164       8.74615933       4.77867651        1
S        8.76627667      10.20035242       0.63397173        1
S       10.23076470       6.04690990       3.32480074        1
S        8.77487481       8.76034999       3.33671303        1
S       10.20375775       7.49786669       0.62889261        1
S        7.59352697       6.06026437       4.74516145        1
S        6.05156073      10.19131936       2.07768955        1
Fe       8.11198354       5.42188693       8.12030553        0
Fe       5.41359594       8.14071520       8.11639005        0
Fe       8.11313902       8.10892942       5.39742018        0
S        7.48533548       7.50040583       7.48732742        1
S        6.05002926       8.76966462      10.18309914        1
S        8.76659489      10.18298768       6.04645299        1
S       10.18160797       6.05439698       8.75613642        1
S        8.76421548       8.76988414       8.75557387        1
S       10.21015882       7.49598045       6.04417579        1
S        7.49842257       6.05927045      10.20749423        1
S        6.04580312      10.20880463       7.49189321        1
H        4.64276349       5.06210114       5.92213058        0
96
Lattice="10.836 0.0 0.0 0.0 10.836 0.0 0.0 0.0 10.836" Properties=species:S:1:pos:R:3:spacegroup_kinds:I:1 spacegroup="P a -3" unit_cell=conventional nspins=1 nkpts=8 fermi_level=12.8598 natoms=96 mineral=pyrite rc=0.375 image_index=3 U_eV=0.0 nspin=1 source_file=results/dft_datasets/2026-05-29/pyr_vfe_mlip_band/pyr_vfe_mlip_band_chgnet.xyz method=CHGNet vacancy_type=V_Fe note="geometry_only: CHGNet MLIP energies not stored in source file (all frames show identical energy in source)" pbc="T T T"
Fe       0.00262721       0.00150304      -0.00143328        0
Fe       2.71044525      -0.00939032       2.69993241        0
Fe      -0.00041475       2.69834991       2.69393091        0
Fe       2.69446121       2.69571693      -0.00176444        0
S        2.07272695       2.07579466       2.07274695        1
S        0.64599080       3.36108762       4.78528713        1
S        3.34285513       4.79112662       0.63381390        1
S        4.79410385       0.62618168       3.34116494        1
S        3.34774813       3.35232602       3.34397792        1
S        4.77903360       2.07055909       0.65084057        1
S        2.07501008       0.66290899       4.78334261        1
S        0.65508107       4.78746489       2.05853317        1
Fe       0.00459568       0.00528887       5.41378291        0
Fe       2.69586796       0.00342968       8.11135701        0
Fe      -0.00629660       2.70594123       8.13143465        0
Fe       2.73318163       2.70905733       5.41856394        0
S        2.06900788       2.06834327       7.49522754        1
S        0.63024744       3.33978309      10.19923119        1
S        3.37289819       4.70861357       6.14772463        1
S        4.78286830       0.64900285       8.76807157        1
S        3.33494345       3.33236326       8.79012350        1
S        4.80441537       2.04939139       6.06113422        1
S        2.07179684       0.64134378      10.20173249        1
S        0.62258894       4.79566525       7.49101376        1
Fe      -0.00972827       5.41550647      -0.00633179        0
Fe       2.72811018       5.43189491       2.68358703        0
Fe      -0.00150749       8.12360432       2.69322794        0
Fe       2.70876979       8.13300777       0.00011689        0
S        2.07750166       7.49341581       2.05564381        1
S        0.64170480       8.77105644       4.78502489        1
S        3.34031028      10.20167191       0.63147380        1
S        4.77442135       6.08913046       3.25099118        1
S        3.33818005       8.77921810       3.33631823        1
S        4.79166277       7.51172288       0.62158278        1
S        2.09427808       6.10916471       4.74658939        1
S        0.64217041      10.20013962       2.06962691        1
Fe       0.02046056       5.41283236       5.41349584        0
Fe       2.69447365       5.41852110       8.14627997        0
Fe       0.00561670       8.13416623       8.12051888        0
Fe       2.70449484       8.14868719       5.40072195        0
S        2.06599038       7.49687926       7.49364176        1
S        0.63659282       8.76282278      10.19229250        1
S        3.33061542      10.23019010       6.05049134        1
S        4.78235932       6.05775091       8.81089194        1
S        3.34549765       8.77161749       8.75877274        1
S        4.73955176       7.58735930       6.08567201        1
S        2.06399280       6.04632002      10.18853145        1
S        0.63695721      10.20452765       7.49331733        1
Fe       5.41224325       0.00529068      -0.00447742        0
Fe       8.14044552       0.00007416       2.70644234        0
Fe       5.42883606       2.69743117       2.73068778        0
Fe       8.11899988       2.70031074      -0.00706327        0
S        7.49834595       2.06686807       2.06262720        1
S        6.12160667       3.21812722       4.74230065        1
S        8.75878058       4.79265309       0.62761612        1
S       10.20958713       0.63883075       3.33398362        1
S        8.78397398       3.33354260       3.32185441        1
S       10.20390236       2.07474289       0.63771049        1
S        7.51203752       0.60187114       4.79322562        1
S        6.06627416       4.79065496       2.08952625        1
Fe       5.42492478      -0.00223817       5.43062222        0
Fe       8.13638692       0.00446946       8.13539211        0
Fe       5.42725391       2.72903055       8.14834486        0
Fe       8.13919909       2.68876699       5.41380153        0
S        7.50516716       2.07279049       7.50194586        1
S        6.04885719       3.33811539      10.23154407        1
S        8.76401426       4.78781797       6.03777614        1
S       10.19893860       0.63802233       8.75925589        1
S        8.76317421       3.34440117       8.75551734        1
S       10.20395931       2.07720495       6.04386045        1
S        7.49857283       0.63357982      10.19654007        1
S        6.06125510       4.75249457       7.62482437        1
Fe       5.41456576       5.43135081       0.01675293        0
Fe       8.13374327       5.41358389       2.70067977        0
Fe       5.43194504       8.13354564       2.71199230        0
Fe       8.13932259       8.13531492       0.00282590        0
S        7.50969433       7.50641928       2.05950685        1
S        6.05772431       8.74695208       4.77999687        1
S        8.76432054      10.19929885       0.63291326        1
S       10.23440165       6.04768696       3.32489994        1
S        8.77394794       8.76060423       3.33471706        1
S       10.20032683       7.49713010       0.62571267        1
S        7.59537448       6.06049646       4.73528391        1
S        6.05049904      10.19201810       2.07606578        1
Fe       8.10744001       5.43076162       8.09042382        0
Fe       5.40643247       8.15083570       8.12084888        0
Fe       8.11407944       8.10986350       5.39441079        0
S        7.48131429       7.50343442       7.48272454        1
S        6.04940208       8.77254427      10.18262385        1
S        8.76551706      10.18187188       6.04643612        1
S       10.17287269       6.05216460       8.74532702        1
S        8.76089331       8.77083910       8.75484868        1
S       10.21189809       7.49839016       6.04258363        1
S        7.49042063       6.06109475      10.20168480        1
S        6.04436813      10.21258562       7.49541452        1
H        4.77977264       5.02071421       6.14948879        0
96
Lattice="10.836 0.0 0.0 0.0 10.836 0.0 0.0 0.0 10.836" Properties=species:S:1:pos:R:3:spacegroup_kinds:I:1 spacegroup="P a -3" unit_cell=conventional nspins=1 nkpts=8 fermi_level=12.8598 natoms=96 mineral=pyrite rc=0.5 image_index=4 U_eV=0.0 nspin=1 source_file=results/dft_datasets/2026-05-29/pyr_vfe_mlip_band/pyr_vfe_mlip_band_chgnet.xyz method=CHGNet vacancy_type=V_Fe note="geometry_only: CHGNet MLIP energies not stored in source file (all frames show identical energy in source)" pbc="T T T"
Fe       0.00201671       0.00158626      -0.00174997        0
Fe       2.70945647      -0.01047247       2.69938446        0
Fe      -0.00089521       2.69888219       2.69392950        0
Fe       2.69332102       2.69599617      -0.00306392        0
S        2.07216985       2.07535754       2.07353521        1
S        0.64499402       3.35766537       4.78607591        1
S        3.34243550       4.79012980       0.63358592        1
S        4.79395792       0.62561230       3.34049656        1
S        3.34728825       3.34993694       3.34449954        1
S        4.77936557       2.07219657       0.65096143        1
S        2.07375508       0.65941663       4.78323925        1
S        0.65397386       4.78860366       2.05692090        1
Fe       0.00462184       0.00418385       5.41332318        0
Fe       2.69540470       0.00264468       8.11133304        0
Fe      -0.00641322       2.70885325       8.13132779        0
Fe       2.72910861       2.71445442       5.42137788        0
S        2.06881765       2.07019952       7.49165036        1
S        0.62552010       3.34011420      10.19992247        1
S        3.34506967       4.73620469       6.12091880        1
S        4.78196901       0.65661536       8.76706302        1
S        3.33161121       3.33333418       8.78673179        1
S        4.80165657       2.05085199       6.06207315        1
S        2.07110772       0.64067088      10.20165706        1
S        0.61895650       4.79657085       7.49281580        1
Fe      -0.01201259       5.41384358      -0.00603185        0
Fe       2.72928326       5.43139543       2.68163762        0
Fe      -0.00226776       8.12367535       2.69272308        0
Fe       2.70690820       8.13235331       0.00205504        0
S        2.07738729       7.49223056       2.05532910        1
S        0.64202456       8.77013899       4.78476471        1
S        3.33951800      10.20214813       0.63134466        1
S        4.77458343       6.08781162       3.25077378        1
S        3.33757286       8.77830690       3.33617430        1
S        4.79102857       7.51304941       0.62329529        1
S        2.09745595       6.09697933       4.75706648        1
S        0.64189572      10.20009390       2.06902340        1
Fe       0.01731485       5.41174522       5.41399805        0
Fe       2.68278873       5.42404623       8.15467863        0
Fe       0.00606796       8.13258762       8.11932931        0
Fe       2.70387531       8.14693074       5.40328822        0
S        2.06640227       7.49500701       7.49849237        1
S        0.63624409       8.76132473      10.19178858        1
S        3.32948482      10.22820829       6.04894054        1
S        4.76579773       6.07028100       8.82444641        1
S        3.34435505       8.77760842       8.75708722        1
S        4.73985147       7.58739495       6.08554044        1
S        2.05994254       6.04555008      10.18575615        1
S        0.63667792      10.20475102       7.49361323        1
Fe       5.41253294       0.00567969      -0.00313530        0
Fe       8.14066459       0.00059935       2.70552502        0
Fe       5.42848260       2.69727406       2.72826986        0
Fe       8.11928378       2.70343902      -0.00930466        0
S        7.49812986       2.06624117       2.06068158        1
S        6.12180071       3.21276638       4.73683430        1
S        8.75696691       4.79257369       0.62473886        1
S       10.20874934       0.63856078       3.33345064        1
S        8.78367076       3.33398708       3.32090785        1
S       10.20358071       2.07408651       0.63760686        1
S        7.51207252       0.60189504       4.79270725        1
S        6.06666059       4.79028105       2.08874896        1
Fe       5.42397583      -0.00330751       5.43063425        0
Fe       8.13699400       0.00340642       8.13552178        0
Fe       5.41560274       2.72150275       8.14427082        0
Fe       8.14067796       2.68668641       5.41170593        0
S        7.50092301       2.07380974       7.49878641        1
S        6.04784794       3.34033048      10.22639615        1
S        8.76610204       4.78873989       6.03940068        1
S       10.19848763       0.63793750       8.75914446        1
S        8.75612137       3.34701117       8.75033164        1
S       10.20322460       2.07610637       6.04344880        1
S        7.49746018       0.63457959      10.19515871        1
S        5.99535085       4.75163715       7.57270290        1
Fe       5.41301532       5.43408122       0.01618212        0
Fe       8.13321424       5.41340157       2.70058950        0
Fe       5.43131879       8.13316348       2.71210121        0
Fe       8.13854550       8.13461829       0.00207072        0
S        7.50923786       7.50655174       2.05889131        1
S        6.05781266       8.74772987       4.78063434        1
S        8.76366917      10.19966036       0.63239332        1
S       10.23423829       6.04755036       3.32579986        1
S        8.77339332       8.76068555       3.33398370        1
S       10.19925527       7.49616615       0.62474070        1
S        7.59435508       6.06018798       4.73359574        1
S        6.04953288      10.19167653       2.07483160        1
Fe       8.11250226       5.44231606       8.07142287        0
Fe       5.40369809       8.15139783       8.12301743        0
Fe       8.11521521       8.10970863       5.39394755        0
S        7.48105410       7.50201817       7.48310680        1
S        6.04941051       8.77424094      10.18314820        1
S        8.76542800      10.18139226       6.04656615        1
S       10.15888453       6.05069797       8.74217435        1
S        8.76040446       8.77123136       8.75526219        1
S       10.21174516       7.49845945       6.04226200        1
S        7.48931056       6.06193451      10.19654905        1
S        6.04436124      10.21479848       7.49477652        1
H        4.98898838       4.98085136       6.26863473        0
96
Lattice="10.836 0.0 0.0 0.0 10.836 0.0 0.0 0.0 10.836" Properties=species:S:1:pos:R:3:spacegroup_kinds:I:1 spacegroup="P a -3" unit_cell=conventional nspins=1 nkpts=8 fermi_level=12.8598 natoms=96 mineral=pyrite rc=0.625 image_index=5 U_eV=0.0 nspin=1 source_file=results/dft_datasets/2026-05-29/pyr_vfe_mlip_band/pyr_vfe_mlip_band_chgnet.xyz method=CHGNet vacancy_type=V_Fe note="geometry_only: CHGNet MLIP energies not stored in source file (all frames show identical energy in source)" pbc="T T T"
Fe       0.00197477       0.00116322      -0.00224539        0
Fe       2.70897314      -0.01015719       2.69931473        0
Fe      -0.00213146       2.69817538       2.69330160        0
Fe       2.69272791       2.69582009      -0.00265358        0
S        2.07250318       2.07559075       2.07241666        1
S        0.63953903       3.35544970       4.78508237        1
S        3.34063965       4.79125907       0.63306269        1
S        4.79368196       0.62533148       3.34100424        1
S        3.34722128       3.34939613       3.34242427        1
S        4.77946782       2.07383983       0.65047105        1
S        2.07191163       0.65671589       4.78168501        1
S        0.65271696       4.78862394       2.05613164        1
Fe       0.00420046       0.00334297       5.41288070        0
Fe       2.69563726       0.00274778       8.11071970        0
Fe      -0.00688491       2.70952531       8.13137665        0
Fe       2.72157204       2.72173796       5.42462737        0
S        2.06956638       2.06979705       7.48987459        1
S        0.62470355       3.33912034      10.20010408        1
S        3.26214994       4.74355977       6.10217801        1
S        4.77993786       0.65122273       8.76758457        1
S        3.33081183       3.33601901       8.78525417        1
S        4.79733707       2.05261149       6.06116955        1
S        2.07090261       0.64076116      10.20153288        1
S        0.61112137       4.79458090       7.49723373        1
Fe      -0.01387115       5.41255883      -0.00475636        0
Fe       2.72730936       5.43134586       2.68718455        0
Fe      -0.00295415       8.12363355       2.69305887        0
Fe       2.70705631       8.13320653       0.00124465        0
S        2.07700738       7.49175842       2.05704287        1
S        0.64265522       8.76753437       4.78445229        1
S        3.33955085      10.20182138       0.63146258        1
S        4.77440157       6.08791965       3.25108841        1
S        3.33774714       8.77721549       3.33556921        1
S        4.79044259       7.51310048       0.62314029        1
S        2.09776585       6.07987805       4.76480407        1
S        0.64168757      10.20002383       2.06856500        1
Fe       0.01091880       5.41295830       5.41146881        0
Fe       2.67271599       5.42419406       8.14634212        0
Fe       0.00508308       8.13215368       8.11869482        0
Fe       2.70431002       8.14377888       5.40585721        0
S        2.06213368       7.49560119       7.50020796        1
S        0.63625450       8.76100736      10.19213294        1
S        3.33036403      10.22936254       6.04884655        1
S        4.75570143       6.07358380       8.82052515        1
S        3.34280584       8.77889919       8.75761092        1
S        4.73740505       7.58654626       6.08482663        1
S        2.05642295       6.04666876      10.18998842        1
S        0.63658603      10.20406214       7.49336036        1
Fe       5.41190682       0.00558137      -0.00304777        0
Fe       8.14058848       0.00057238       2.70584350        0
Fe       5.42798647       2.69698231       2.72693509        0
Fe       8.12097112       2.70508736      -0.01065826        0
S        7.49765614       2.06524614       2.06029574        1
S        6.11836950       3.21291924       4.73117401        1
S        8.75470401       4.79204825       0.62205279        1
S       10.20837254       0.63764920       3.33279942        1
S        8.78288341       3.33383203       3.31967408        1
S       10.20201555       2.07459792       0.63673357        1
S        7.51119057       0.60174394       4.79259408        1
S        6.06622552       4.78973781       2.08636122        1
Fe       5.42265619      -0.00371675       5.42950068        0
Fe       8.13770849       0.00331337       8.13568566        0
Fe       5.41742652       2.72457944       8.14672540        0
Fe       8.14122003       2.68585517       5.40978089        0
S        7.49791797       2.07462496       7.49716413        1
S        6.04621778       3.34208942      10.22082468        1
S        8.76610174       4.78897979       6.03585029        1
S       10.19814860       0.63708192       8.75916163        1
S        8.75326644       3.34907818       8.74892920        1
S       10.20013083       2.07478631       6.04246585        1
S        7.49671129       0.63374637      10.19482292        1
S        5.98899725       4.73622769       7.53411304        1
Fe       5.40903283       5.43402269       0.01147296        0
Fe       8.13136367       5.41352493       2.69940407        0
Fe       5.43169635       8.13270945       2.71218262        0
Fe       8.13830956       8.13621378       0.00127085        0
S        7.50889898       7.50632908       2.05744908        1
S        6.05798925       8.74828291       4.77881314        1
S        8.76307981      10.19907993       0.63192296        1
S       10.23267328       6.04795930       3.32559221        1
S        8.77288807       8.76042139       3.33368781        1
S       10.19867780       7.49543036       0.62468587        1
S        7.59332118       6.06133413       4.73133099        1
S        6.04911599      10.19175103       2.07536164        1
Fe       8.10713821       5.44217995       8.07011956        0
Fe       5.40076983       8.15212542       8.12285119        0
Fe       8.11436619       8.10934090       5.39384282        0
S        7.47677063       7.50174640       7.48276186        1
S        6.04900057       8.77333647      10.18321795        1
S        8.76475510      10.18091627       6.04690012        1
S       10.15190338       6.05177026       8.74300139        1
S        8.75837543       8.77123735       8.75517193        1
S       10.21132193       7.49729857       6.04278302        1
S        7.48479266       6.05934400      10.18934412        1
S        6.04385472      10.21335223       7.49419636        1
H        5.21583864       5.01001665       6.37377665        0
96
Lattice="10.836 0.0 0.0 0.0 10.836 0.0 0.0 0.0 10.836" Properties=species:S:1:pos:R:3:spacegroup_kinds:I:1 spacegroup="P a -3" unit_cell=conventional nspins=1 nkpts=8 fermi_level=12.8598 natoms=96 mineral=pyrite rc=0.75 image_index=6 U_eV=0.0 nspin=1 source_file=results/dft_datasets/2026-05-29/pyr_vfe_mlip_band/pyr_vfe_mlip_band_chgnet.xyz method=CHGNet vacancy_type=V_Fe note="geometry_only: CHGNet MLIP energies not stored in source file (all frames show identical energy in source)" pbc="T T T"
Fe       0.00122329      -0.00056456      -0.00341750        0
Fe       2.70789119      -0.01012789       2.69767537        0
Fe      -0.00289491       2.69679406       2.69277478        0
Fe       2.69501290       2.69570285      -0.00553849        0
S        2.07221860       2.07463615       2.07201264        1
S        0.63163674       3.35357433       4.78430254        1
S        3.33865321       4.78987008       0.63404128        1
S        4.79314097       0.62602813       3.33973623        1
S        3.34559352       3.34909454       3.34226171        1
S        4.77967462       2.07153165       0.64652179        1
S        2.07001097       0.65481339       4.77976084        1
S        0.65294005       4.78733059       2.05959990        1
Fe       0.00335666       0.00205103       5.41119403        0
Fe       2.69507331       0.00243019       8.11024228        0
Fe      -0.00653083       2.71229423       8.13419416        0
Fe       2.71065949       2.72656244       5.42087037        0
S        2.07016404       2.06756694       7.48846576        1
S        0.62796019       3.33676691      10.19835604        1
S        3.21576507       4.74190141       6.10670708        1
S        4.78039739       0.64631445       8.76618549        1
S        3.33235095       3.33917708       8.78138797        1
S        4.79030691       2.05537389       6.05701418        1
S        2.07042836       0.64032176      10.20088666        1
S        0.59612721       4.78970487       7.50235002        1
Fe      -0.01442786       5.41707071      -0.00332384        0
Fe       2.72521918       5.43098789       2.69380011        0
Fe      -0.00295043       8.12303918       2.69354003        0
Fe       2.70738005       8.13395902       0.00016983        0
S        2.07685764       7.49114451       2.05939557        1
S        0.64206288       8.76527873       4.78361390        1
S        3.33937734      10.20164591       0.63082549        1
S        4.77252882       6.08775595       3.25142964        1
S        3.33756679       8.77584809       3.33471124        1
S        4.78733472       7.51272209       0.62349635        1
S        2.08841179       6.07271906       4.76733777        1
S        0.64130016      10.19917810       2.06702608        1
Fe      -0.00356943       5.41685184       5.40871339        0
Fe       2.66220092       5.42358471       8.13960033        0
Fe       0.00515820       8.13205259       8.12228828        0
Fe       2.70193691       8.14078824       5.40736486        0
S        2.05577267       7.49664296       7.50067060        1
S        0.63569852       8.76166736      10.19329433        1
S        3.32998089      10.22963070       6.04766079        1
S        4.72131562       6.09978069       8.81719512        1
S        3.34007550       8.77938716       8.75815426        1
S        4.73542659       7.58281665       6.08223429        1
S        2.05457715       6.04940732      10.19560720        1
S        0.63519864      10.20272456       7.49322010        1
Fe       5.41229211       0.00395853      -0.00476316        0
Fe       8.14056553      -0.00065672       2.70722348        0
Fe       5.42818052       2.69800518       2.72503495        0
Fe       8.12396105       2.70438102      -0.01054580        0
S        7.49544856       2.06520464       2.06037586        1
S        6.11153606       3.21469146       4.73218804        1
S        8.75472891       4.79251643       0.62319925        1
S       10.20840177       0.63531528       3.33154001        1
S        8.77746564       3.33077319       3.31943858        1
S       10.19929656       2.07608693       0.63524974        1
S        7.51044113       0.60025073       4.79033233        1
S        6.06027318       4.79212961       2.07850995        1
Fe       5.42049738      -0.00421124       5.42759500        0
Fe       8.13669523       0.00615210       8.13538953        0
Fe       5.41763321       2.70155551       8.14396389        0
Fe       8.13854692       2.68102896       5.40599505        0
S        7.50411312       2.05950944       7.49362101        1
S        6.04116057       3.34430265      10.22140360        1
S        8.76837534       4.78526248       6.02934563        1
S       10.19556676       0.63599051       8.75906571        1
S        8.75854698       3.34940172       8.75373592        1
S       10.19662813       2.07304074       6.03998963        1
S        7.49559594       0.63320633      10.19377287        1
S        6.06733754       4.68860348       7.51272117        1
Fe       5.40538345       5.42240680       0.01731736        0
Fe       8.13033494       5.41318018       2.69637355        0
Fe       5.42974299       8.13227494       2.71172745        0
Fe       8.13757679       8.13848289      -0.00193394        0
S        7.50752889       7.50630623       2.05624753        1
S        6.05586802       8.74732203       4.77680415        1
S        8.76223156      10.19721884       0.62951220        1
S       10.22841943       6.04667991       3.32505019        1
S        8.77113167       8.76012843       3.33348390        1
S       10.19826121       7.49496836       0.62536208        1
S        7.58468196       6.06109283       4.73375301        1
S        6.04863711      10.19133284       2.07613798        1
Fe       8.10448473       5.43384569       8.08438727        0
Fe       5.39792670       8.15410969       8.11948300        0
Fe       8.11548321       8.10971543       5.39461537        0
S        7.47442268       7.49934165       7.48302116        1
S        6.04920773       8.76903652      10.18332625        1
S        8.76352207      10.17878513       6.04606791        1
S       10.15711817       6.05340718       8.75248434        1
S        8.75663115       8.76860861       8.75617063        1
S       10.20865069       7.49244855       6.04056580        1
S        7.47887606       6.05396117      10.18723522        1
S        6.04295034      10.21000775       7.49073251        1
H        5.38769053       5.15042150       6.42654811        0
96
Lattice="10.836 0.0 0.0 0.0 10.836 0.0 0.0 0.0 10.836" Properties=species:S:1:pos:R:3:spacegroup_kinds:I:1 spacegroup="P a -3" unit_cell=conventional nspins=1 nkpts=8 fermi_level=12.8598 natoms=96 mineral=pyrite rc=0.875 image_index=7 U_eV=0.0 nspin=1 source_file=results/dft_datasets/2026-05-29/pyr_vfe_mlip_band/pyr_vfe_mlip_band_chgnet.xyz method=CHGNet vacancy_type=V_Fe note="geometry_only: CHGNet MLIP energies not stored in source file (all frames show identical energy in source)" pbc="T T T"
Fe      -0.00167205      -0.00155059      -0.00399832        0
Fe       2.70109414      -0.00671457       2.69221581        0
Fe      -0.00982428       2.69770498       2.69826311        0
Fe       2.69748500       2.69923978      -0.00757436        0
S        2.07224835       2.07180851       2.06629952        1
S        0.62924026       3.34676854       4.78873661        1
S        3.33815923       4.78536078       0.63453093        1
S        4.79119410       0.62764799       3.33977806        1
S        3.34380274       3.34060092       3.34391121        1
S        4.78448229       2.07284030       0.64258029        1
S        2.06822840       0.65365848       4.77768528        1
S        0.65013306       4.78442645       2.06876757        1
Fe       0.00133653      -0.00206220       5.41319817        0
Fe       2.70008440       0.00233431       8.11129622        0
Fe       0.00007186       2.71925993       8.14093684        0
Fe       2.70196853       2.72333542       5.41646216        0
S        2.06836334       2.06845210       7.48764282        1
S        0.63488441       3.33568675      10.19935590        1
S        3.22698004       4.75166457       6.10055012        1
S        4.78584474       0.63993655       8.76006234        1
S        3.33646836       3.34442104       8.76632647        1
S        4.78705949       2.06871974       6.04978359        1
S        2.07132251       0.64025064      10.19710143        1
S        0.59953381       4.78686775       7.50588922        1
Fe      -0.00408444       5.42218540       0.00070578        0
Fe       2.72712415       5.42796707       2.71831567        0
Fe       0.00130334       8.12422716       2.70033682        0
Fe       2.70957591       8.13504351      -0.00020786        0
S        2.07447817       7.49251185       2.06625057        1
S        0.64384895       8.76087882       4.78367495        1
S        3.33751621      10.20395662       0.63043076        1
S        4.77227000       6.08672834       3.25869490        1
S        3.33470185       8.77332003       3.32962302        1
S        4.78644999       7.50685946       0.62171949        1
S        2.08400655       6.06482661       4.77823906        1
S        0.63891418      10.19987884       2.06808630        1
Fe      -0.00616909       5.41650922       5.41273486        0
Fe       2.66410209       5.42183547       8.12783948        0
Fe       0.00655173       8.13686648       8.13042037        0
Fe       2.70402393       8.12702784       5.40948381        0
S        2.05118652       7.49835146       7.50217176        1
S        0.63512397       8.76328903      10.19363352        1
S        3.33069958      10.22829961       6.04345083        1
S        4.72177070       6.10250574       8.80830374        1
S        3.33867060       8.77706454       8.75977843        1
S        4.73097759       7.59007910       6.07887652        1
S        2.06298795       6.05076336      10.20329433        1
S        0.63393699      10.19999567       7.49220043        1
Fe       5.41770362       0.00051193      -0.00571142        0
Fe       8.13719248      -0.00300461       2.70925083        0
Fe       5.42575409       2.70091648       2.72212840        0
Fe       8.12494271       2.69826669      -0.00181758        0
S        7.49187450       2.06370777       2.06130845        1
S        6.10656485       3.22618171       4.73866534        1
S        8.75625636       4.78939419       0.63628119        1
S       10.20375708       0.63184973       3.33341130        1
S        8.77246148       3.32863165       3.32234443        1
S       10.19594812       2.07174403       0.63583661        1
S        7.50779367       0.60328277       4.78535352        1
S        6.04966093       4.79448016       2.07814945        1
Fe       5.41615801      -0.00147523       5.41595203        0
Fe       8.13418976       0.00957000       8.13571914        0
Fe       5.40624529       2.67594713       8.11946896        0
Fe       8.13443169       2.67868286       5.40073676        0
S        7.51213675       2.04409340       7.48916963        1
S        6.03888280       3.33545470      10.22207640        1
S        8.77596253       4.77567940       6.03279908        1
S       10.19390866       0.63367021       8.75994519        1
S        8.77765598       3.34038141       8.76654602        1
S       10.19311829       2.07018223       6.04347189        1
S        7.49555347       0.63199613      10.19495661        1
S        6.13519821       4.69719426       7.54647764        1
Fe       5.40893002       5.40975210       0.02075930        0
Fe       8.13476058       5.41687993       2.69791533        0
Fe       5.42270942       8.12962486       2.70561297        0
Fe       8.13985869       8.13764350      -0.00201570        0
S        7.50360188       7.50530452       2.05877791        1
S        6.04952723       8.75101249       4.77216641        1
S        8.76193507      10.19421110       0.63014692        1
S       10.22643811       6.04466431       3.32848266        1
S        8.76590468       8.76308135       3.34231854        1
S       10.19844532       7.49553465       0.62869052        1
S        7.59004275       6.06522227       4.73459985        1
S        6.04547019      10.19044943       2.07225945        1
Fe       8.13255103       5.42993602       8.12458762        0
Fe       5.40070134       8.15209901       8.11826242        0
Fe       8.13311200       8.10976397       5.40491907        0
S        7.48174377       7.49339060       7.48759290        1
S        6.05137583       8.76203842      10.18278195        1
S        8.76722058      10.17603301       6.04979357        1
S       10.18011947       6.05760522       8.76867015        1
S        8.76070141       8.76444399       8.76404345        1
S       10.20314215       7.48812423       6.04116559        1
S        7.48639014       6.04908504      10.19646594        1
S        6.04284197      10.20525395       7.48510616        1
H        5.59873096       5.27729235       6.45222124        0
96
Lattice="10.836 0.0 0.0 0.0 10.836 0.0 0.0 0.0 10.836" Properties=species:S:1:pos:R:3:spacegroup_kinds:I:1 spacegroup="P a -3" unit_cell=conventional nspins=1 nkpts=8 fermi_level=12.8598 natoms=96 mineral=pyrite rc=1.0 image_index=8 U_eV=0.0 nspin=1 source_file=results/dft_datasets/2026-05-29/pyr_vfe_mlip_band/pyr_vfe_mlip_band_chgnet.xyz method=CHGNet vacancy_type=V_Fe note="geometry_only: CHGNet MLIP energies not stored in source file (all frames show identical energy in source)" pbc="T T T"
Fe      -0.00073734       0.00021129      -0.00062028        0
Fe       2.70781202      -0.00054438       2.70417506        0
Fe      -0.00087575       2.70564452       2.70575857        0
Fe       2.70641935       2.70895827      -0.00242510        0
S        2.07249463       2.07307764       2.07206142        1
S        0.63367965       3.34640767       4.77727349        1
S        3.34353963       4.78173765       0.63227428        1
S        4.77968685       0.63386649       3.34284958        1
S        3.35262663       3.35410422       3.34979327        1
S        4.77252970       2.06861471       0.64075082        1
S        2.06949881       0.63930470       4.77454691        1
S        0.63974067       4.77781028       2.06813159        1
Fe       0.00062871      -0.00127975       5.41716844        0
Fe       2.70714632       0.00480139       8.12383681        0
Fe      -0.00123760       2.71031067       8.12692781        0
Fe       2.69381628       2.71480728       5.41412789        0
S        2.06898536       2.06936149       7.48407157        1
S        0.63605179       3.34746913      10.19775042        1
S        3.27119739       4.76033365       6.08959834        1
S        4.77610827       0.63598692       8.76265173        1
S        3.33661277       3.34244530       8.76581576        1
S        4.80293559       2.09036781       6.03003256        1
S        2.06966900       0.63849271      10.19840832        1
S        0.61635760       4.78394928       7.49014316        1
Fe      -0.00409808       5.41829875      -0.00251720        0
Fe       2.71789215       5.41755676       2.69231100        0
Fe       0.00124635       8.12559722       2.70571518        0
Fe       2.70798856       8.13198888      -0.00214500        0
S        2.06967998       7.48906019       2.07046533        1
S        0.63562089       8.76501135       4.77569864        1
S        3.34673901      10.20073611       0.63662068        1
S        4.77016891       6.09075913       3.27840798        1
S        3.34482279       8.76689896       3.34102467        1
S        4.78310677       7.50157271       0.62188624        1
S        2.09867942       6.04234791       4.80203857        1
S        0.63773408      10.19814099       2.07053951        1
Fe       0.00235104       5.41688596       5.41558616        0
Fe       2.69018423       5.41912516       8.13057070        0
Fe      -0.00295901       8.12980429       8.12596044        0
Fe       2.70628245       8.14334527       5.41956420        0
S        2.06380209       7.49604341       7.48805469        1
S        0.63567844       8.76596742      10.19850208        1
S        3.34039523      10.21526190       6.04835042        1
S        4.75024513       6.07465000       8.76569324        1
S        3.34090853       8.77214201       8.76585014        1
S        4.74085660       7.55485280       6.06469197        1
S        2.06415421       6.06023393      10.20229223        1
S        0.63690552      10.19919497       7.48717502        1
Fe       5.41765745       0.00609760      -0.00366218        0
Fe       8.12881953      -0.00224074       2.70784682        0
Fe       5.41574934       2.69785707       2.71109959        0
Fe       8.12652136       2.70822420      -0.00250997        0
S        7.48865679       2.07030440       2.06621079        1
S        6.09206834       3.27373378       4.76123528        1
S        8.76348804       4.77746085       0.63398632        1
S       10.19870689       0.63660328       3.34669109        1
S        8.76694509       3.34231234       3.33881838        1
S       10.19874032       2.07010341       0.63735749        1
S        7.49563892       0.61639841       4.78091067        1
S        6.03662850       4.80971043       2.08827651        1
Fe       5.41798985      -0.00319347       5.41633122        0
Fe       8.12787147      -0.00148169       8.12770734        0
Fe       5.42343421       2.70610023       8.13186711        0
Fe       8.13042459       2.68615123       5.41106031        0
S        7.50015318       2.05702115       7.48414243        1
S        6.05458161       3.34182890      10.21893412        1
S        8.74540072       4.79247315       6.02092005        1
S       10.19950509       0.63574541       8.76557353        1
S        8.77331760       3.34151299       8.76455286        1
S       10.20219804       2.06885815       6.05455876        1
S        7.48928884       0.63773562      10.19749156        1
S        6.10981731       4.71676500       7.65124676        1
Fe       5.41518213       5.42356121      -0.01492073        0
Fe       8.14348703       5.42062476       2.70258951        0
Fe       5.41529234       8.12923516       2.68577495        0
Fe       8.12926918       8.12917788      -0.00341550        0
S        7.49220524       7.49177998       2.06584821        1
S        6.03101953       8.73858331       4.79112216        1
S        8.76550396      10.19856657       0.63717644        1
S       10.21546287       6.05130962       3.33803659        1
S        8.76571900       8.76571957       3.34430328        1
S       10.19768156       7.48867640       0.63713422        1
S        7.55360708       6.06688781       4.74026340        1
S        6.05821481      10.20090709       2.06934394        1
Fe       8.12220187       5.41837734       8.13146854        0
Fe       5.41291473       8.13955566       8.11839863        0
Fe       8.13898427       8.11685765       5.41443640        0
S        7.48347733       7.48668225       7.47569606        1
S        6.05727807       8.77062865      10.19467847        1
S        8.76794629      10.19305771       6.05573830        1
S       10.19633275       6.05994297       8.76449639        1
S        8.76380574       8.76364205       8.76331911        1
S       10.20217271       7.48909810       6.05122621        1
S        7.49055100       6.06211309      10.20136721        1
S        6.05701832      10.20474728       7.48349805        1
H        5.72858284       5.14988590       6.39193529        0
