96
Lattice="10.832 0.0 0.0 0.0 10.832 0.0 0.0 0.0 10.832" Properties=species:S:1:pos:R:3:forces:R:3 spacegroup="P a -3" unit_cell=conventional mineral=pyrite rc=0.0 image_index=0 U_eV=0.0 nspin=1 source_file=results/dft_datasets/2026-05-01/pyr_prod_neb_W3/prod_essentials/neb.traj method=PBE_U0_ONCV vacancy_type=V_S2_dimer reaction=S2_dimer_hop energy=-128055.54043539795 pbc="T T T"
Fe      -0.01002306      -0.00162407       0.01030915      -0.00083715      -0.00963341       0.00093665
Fe       2.69856921      -0.00571622       2.71936242       0.00428012      -0.02045235      -0.00041960
Fe      -0.00697820       2.70518799       2.71741644      -0.01420432      -0.01104315      -0.00224123
Fe       2.69695200       2.70316175       0.01161276       0.00103101      -0.00370059       0.00641259
S        2.06164058       2.06510223       2.07979030      -0.00423666      -0.00330644      -0.00506584
S        0.63235825       3.33798823       4.78526800       0.00086209      -0.00041883       0.00822933
S        3.34111501       4.77464306       0.64212832       0.00473083      -0.00098036      -0.00434105
S        4.76848412       0.63375765       3.35587344      -0.00351727       0.00310795       0.00146810
S        3.33950249       3.34261664       3.35410866      -0.01362016      -0.00021932      -0.00863685
S        4.77060509       2.06956107       0.64505298      -0.00905568       0.00021494       0.00505607
S        2.06277397       0.62842427       4.78835891      -0.00360751      -0.00355789      -0.00000926
S        0.62969642       4.77457994       2.07748179      -0.00211396      -0.00282976       0.00472517
Fe      -0.00650243      -0.00825199       5.42856542      -0.00238907      -0.00022651      -0.00859237
Fe       2.69944331      -0.01182869       8.13593261      -0.00079756       0.00933285      -0.00749579
Fe      -0.00338135       2.70928345       8.13534697       0.00415259       0.00185119      -0.00411119
Fe       2.70224872       2.69683065       5.42395989       0.00308918      -0.00143210       0.01154528
S        2.07078938       2.05835550       7.49956807      -0.00159331      -0.00826455       0.00304521
S        0.62924455       3.34434353      10.20812153      -0.00542323       0.00326170       0.01373303
S        3.31830041       4.75802035       6.06825728      -0.01120178      -0.00400835      -0.00369236
S        4.75864750       0.63289223       8.78157009      -0.00154498       0.00270506       0.00564331
S        3.33393876       3.35204820       8.78454001      -0.00736467      -0.00079678      -0.00370342
S        4.77051119       2.06210716       6.06334821      -0.00307710       0.00557955       0.00304547
S        2.06128138       0.63208764      10.20675420      -0.00198155      -0.00562223      -0.00189362
S        0.63109218       4.76868064       7.48916962      -0.00783415      -0.00137194      -0.00057618
Fe      -0.01547882       5.41565272       0.01078593      -0.00882737       0.00804858      -0.00814217
Fe       2.69615427       5.41183759       2.71548824       0.00233096      -0.00160823       0.00780638
Fe      -0.00927709       8.11896418       2.71786581       0.00502239       0.00717106       0.00146013
Fe       2.70470812       8.11442219       0.00584161       0.00223969      -0.01306223      -0.00821596
S        2.06169568       7.48201940       2.07718622      -0.00005322      -0.01233718      -0.00031393
S        0.63043436       8.75439161       4.78745579       0.00044197       0.00365482      -0.00397493
S        3.33672072      10.18691806       0.64900230       0.00779584      -0.00146167      -0.00849518
S        4.76667538       6.05320139       3.35633109      -0.00624110      -0.00531267       0.00048362
S        3.33722567       8.75520403       3.35452465       0.01036849       0.00423975      -0.00067389
S        4.76540439       7.46426272       0.62232683       0.01334737       0.00191573      -0.00785035
S        2.06507790       6.04747655       4.77863682       0.00418421      -0.00006299      -0.00156503
S        0.62798902      10.19003592       2.08085785       0.00394227      -0.00502034      -0.00631360
Fe      -0.00353103       5.40873599       5.43009275      -0.01496613       0.00721837       0.00276471
Fe       2.63044771       5.38397747       8.10291796       0.00876335       0.00875332       0.01128611
Fe      -0.00559145       8.12085346       8.13839253      -0.00692450       0.00511212      -0.00597627
Fe       2.69802261       8.11365832       5.42795020       0.00958970      -0.00860214      -0.00270120
S        2.05517400       7.46825395       7.48779733      -0.00678437       0.00767089      -0.00172367
S        0.63215817       8.75732208      10.20768372       0.00112511      -0.00132206      -0.01164555
S        3.33537120      10.18200817       6.06720715      -0.00361754      -0.00171235       0.00071040
S        3.35838415       8.72255213       8.77923360      -0.00363117       0.00030210       0.00209339
S        4.76139612       7.47922446       6.09279576       0.00090271       0.00872401       0.00513886
S        2.06816421       6.04677398      10.19825801      -0.00430763      -0.00968303       0.00382426
S        0.63239594      10.18610476       7.49795644      -0.00132566       0.00725822      -0.01116013
Fe       5.40561731       0.00057734       0.01336123       0.00472543       0.00032679       0.00199055
Fe       8.11300781      -0.00525332       2.71696743       0.01387419       0.00030750       0.00317094
Fe       5.40748341       2.70472101       2.72380867       0.00598861       0.00640745       0.00202603
Fe       8.11258034       2.70943794       0.00657723      -0.00436959      -0.00346122       0.00157326
S        7.47540455       2.06696643       2.07842850      -0.00205277       0.00112280       0.00052785
S        6.04854587       3.32992230       4.78517520      -0.00471257      -0.00518746       0.00380472
S        8.74326835       4.78245428       0.64111431       0.00603027       0.00439813      -0.00262201
S       10.18443752       0.63449233       3.35613312       0.00460716      -0.01001907       0.00047848
S        8.75481203       3.34043717       3.35370190       0.00203220       0.00480616       0.00387799
S       10.18223510       2.07051555       0.64707521       0.00265826      -0.01014994       0.00248317
S        7.47869581       0.62741723       4.78555057       0.00441356       0.00176043       0.01232844
S        6.04765003       4.77283523       2.08816574      -0.00020337       0.00507176       0.00927705
Fe       5.40746380      -0.01678058       5.43334362       0.00674940       0.00111123       0.00477917
Fe       8.11221293      -0.00957299       8.13496230      -0.00042835       0.00881323      -0.00668950
Fe       5.40475442       2.71856062       8.12945302       0.00335220      -0.00237159      -0.00696872
Fe       8.12039736       2.69476963       5.42236654      -0.00390088       0.00275159       0.00028076
S        7.48116884       2.05882986       7.49054640       0.00335786       0.00009513       0.00802158
S        6.03592265       3.36445287      10.20554107       0.00615676      -0.00496943       0.00224689
S        8.75627812       4.76617742       6.06041373      -0.00108501       0.00408445       0.00225614
S       10.18381228       0.63469644       8.77497906      -0.00083792      -0.00219289      -0.00865973
S        8.74875977       3.34304422       8.77433125       0.01137919       0.00086286      -0.00688413
S       10.18874332       2.06117098       6.06261953       0.00078342       0.00548339       0.00444852
S        7.47347997       0.64029540      10.20471371       0.00578447       0.00220601       0.00379469
S        6.07798736       4.73586272       7.46462297       0.00003702      -0.00755364      -0.00995094
Fe       5.39834928       5.40597195       0.03676443      -0.02023561       0.00169616      -0.01825303
Fe       8.11121280       5.41075123       2.72203408      -0.01280384       0.00000771       0.00707310
Fe       5.40672952       8.11960249       2.71840981      -0.00052168       0.00099116      -0.00340337
Fe       8.11364054       8.12547151       0.01002120      -0.01284317      -0.00450843      -0.00388237
S        7.47354244       7.48040446       2.07900720       0.00356895       0.00688181       0.00195198
S        6.04728088       8.74672119       4.78410784      -0.00403149      -0.00718932      -0.00277525
S        8.75221338      10.19158269       0.64883972       0.00567417       0.00359389       0.00185994
S       10.18401102       6.04911978       3.35432067      -0.00381757       0.00166170       0.00598321
S        8.75228088       8.75517661       3.35258454       0.00135394       0.00031419      -0.00091531
S       10.18182586       7.48243290       0.64881115       0.01090251      -0.00754465      -0.00301153
S        7.47838279       6.04398345       4.79304248       0.00449403       0.00657894      -0.00956270
S        6.04343626      10.18787571       2.08170092       0.00322956       0.00559138      -0.00417419
Fe       5.40214248       5.40951327       5.46480205       0.00568060       0.00131563       0.01309103
Fe       8.09041093       5.41274425       8.13272541      -0.00962621      -0.00591405       0.00103050
Fe       5.45771768       8.18716521       8.12498604      -0.00785806      -0.01297841       0.00918604
Fe       8.11874572       8.11435973       5.42511125      -0.00256159       0.00141873      -0.00811054
S        7.48356136       7.50076708       7.48637989       0.00847333       0.00682037      -0.00063198
S        6.05645475       8.77587880      10.20685542       0.00932436       0.00647738       0.00393430
S        8.75665297      10.18434013       6.06291601      -0.00817431       0.00758938       0.00303570
S       10.17834574       6.05844005       8.78515185       0.00324268      -0.00364042       0.00305370
S        8.76433557       8.75490918       8.77785706       0.00529673       0.00591379      -0.00609120
S       10.18810647       7.47785456       6.06627991       0.00636091       0.00896364      -0.00753308
S        7.42638988       6.06205039      10.19662774      -0.00731710      -0.00926651       0.00727391
S        6.05181604      10.18297196       7.49248850       0.00882763       0.01717703      -0.00757498
H        4.81409754       5.82095201      -1.42186871       0.01190035       0.00627041       0.02297692
96
Lattice="10.832 0.0 0.0 0.0 10.832 0.0 0.0 0.0 10.832" Properties=species:S:1:pos:R:3:forces:R:3 spacegroup="P a -3" unit_cell=conventional mineral=pyrite rc=0.125 image_index=1 U_eV=0.0 nspin=1 source_file=results/dft_datasets/2026-05-01/pyr_prod_neb_W3/prod_essentials/neb.traj method=PBE_U0_ONCV vacancy_type=V_S2_dimer reaction=S2_dimer_hop energy=-128055.52532382806 pbc="T T T"
Fe      -0.00957541      -0.00608417       0.00308712       0.00233559      -0.00042115      -0.00196227
Fe       2.70065088      -0.01032265       2.71377870       0.00410425      -0.00061784      -0.00373993
Fe      -0.00697016       2.70085753       2.71133826      -0.00383583      -0.00247572      -0.00134700
Fe       2.69584314       2.69820268       0.00847685      -0.00162699       0.00192756      -0.00748140
S        2.06102000       2.06016545       2.07538901      -0.00037821       0.00098833      -0.00326710
S        0.63586028       3.33527019       4.78150363      -0.00124184       0.00356123      -0.00382194
S        3.33092316       4.76840854       0.64184316       0.01185330       0.00037358       0.00423358
S        4.77067122       0.63066006       3.34767680       0.00083818       0.00297502      -0.00062401
S        3.33980488       3.33862129       3.35005384      -0.00159897       0.00391065      -0.00486658
S        4.76881625       2.06469894       0.63696419       0.00242918      -0.00006273       0.00072197
S        2.06622323       0.62558688       4.78394225      -0.00158046       0.00104644      -0.00742175
S        0.62749545       4.77095714       2.07434359      -0.01089042      -0.00077005      -0.00266521
Fe      -0.00246388      -0.01098128       5.42169601      -0.00428783       0.00149715      -0.00639022
Fe       2.70300795      -0.01297597       8.13034672      -0.00142079      -0.00086209      -0.00511110
Fe       0.00066058       2.70690697       8.12983378      -0.00505942      -0.00382657      -0.00412662
Fe       2.70699220       2.69471053       5.42126782      -0.00436805      -0.00167122      -0.00438836
S        2.07479129       2.05758879       7.49640717      -0.00337329      -0.00668461      -0.00566954
S        0.62835493       3.34038072      10.20389952      -0.00503165       0.00037075       0.00174706
S        3.32955310       4.75794699       6.07003272      -0.01230659      -0.00665839      -0.01651754
S        4.76147943       0.62954916       8.77336427       0.00156272       0.00107961      -0.00107086
S        3.33709412       3.34674272       8.78127467      -0.00754156       0.00212887      -0.00493369
S        4.77433309       2.05902929       6.05441698       0.00056410      -0.00163496       0.00066257
S        2.06216082       0.62825804      10.20087666      -0.00091403      -0.00356278      -0.00165708
S        0.64254209       4.76909182       7.48827638      -0.02268484      -0.00783287      -0.00790666
Fe      -0.01933028       5.41329518       0.00467423       0.00745954      -0.00238598      -0.00183448
Fe       2.69723724       5.40710722       2.71391711      -0.00983113      -0.00002957      -0.01248759
Fe      -0.00787863       8.11578419       2.71164046       0.00087109      -0.00594285      -0.00641285
Fe       2.70245482       8.11208354       0.00132193       0.00884974      -0.00898215      -0.00698543
S        2.06251944       7.47763040       2.07377449      -0.00207334       0.00047951      -0.00441278
S        0.63469697       8.75175724       4.78142104      -0.00020672      -0.00186585      -0.00496531
S        3.33728545      10.18297090       0.64230988       0.00530881       0.00009924      -0.00098396
S        4.76760241       6.04962611       3.34372639      -0.00292052      -0.00095851       0.00835866
S        3.34042537       8.75156448       3.34885011      -0.00009076      -0.00283001      -0.00678488
S        4.76054762       7.46065437       0.60553899       0.00829721      -0.00048774       0.01663349
S        2.07026664       6.04449962       4.77942124       0.00267549      -0.00287526      -0.00760378
S        0.62955449      10.18565992       2.07385179       0.00455291      -0.00442101      -0.00213324
Fe       0.00070430       5.40692006       5.42471643      -0.00144136       0.00054276       0.00086055
Fe       2.65030588       5.38569866       8.11574379      -0.02533231      -0.00958070      -0.02909409
Fe      -0.00191529       8.11837570       8.13199286      -0.00008459      -0.00080630      -0.00709393
Fe       2.70368305       8.11028195       5.42359177      -0.00366819       0.00336609      -0.00547182
S        2.06537678       7.46768165       7.48864978      -0.01364767      -0.00127732      -0.01328360
S        0.63192472       8.75411146      10.20054418      -0.00032113       0.00001748      -0.00002340
S        3.33969238      10.17964766       6.06159309      -0.00373993      -0.00249963      -0.00561760
S        3.35902591       8.72406330       8.77326499      -0.00009436      -0.00536512      -0.00127398
S        4.76634554       7.47627444       6.08446300      -0.00229445       0.00019566      -0.00573819
S        2.06046268       6.04305114      10.20036019       0.00975631      -0.00188050      -0.01231456
S        0.63652778      10.18400694       7.49063085      -0.00592511       0.00208414      -0.00497354
Fe       5.40645065      -0.00334698       0.00479190       0.00273231      -0.00275237      -0.00187588
Fe       8.11536630      -0.00927890       2.70779596       0.00182908       0.00457759       0.00192653
Fe       5.40834049       2.70289660       2.71120557      -0.00138402      -0.00795422       0.00898601
Fe       8.11155218       2.70638954      -0.00286470       0.00440327      -0.00520880       0.00155809
S        7.47606664       2.06353186       2.06824893      -0.00168793       0.00191984       0.00260941
S        6.05272772       3.32748084       4.77322386      -0.00385023      -0.00181134       0.00047334
S        8.73760154       4.77896744       0.62954361       0.00392736       0.00469612      -0.00115957
S       10.18664514       0.63013231       3.34925878       0.00256802      -0.00207334      -0.00075616
S        8.75540303       3.33756077       3.34370041      -0.00212193       0.00082147      -0.00133543
S       10.18199626       2.06577371       0.64030071      -0.00287578       0.00141231       0.00412251
S        7.48259527       0.62469251       4.77688680      -0.00167585       0.00043143       0.00149073
S        6.04285965       4.77188258       2.06618550       0.01122595      -0.00598887       0.03207708
Fe       5.41163017      -0.01944506       5.42440298      -0.00299508       0.00169590       0.00016738
Fe       8.11587166      -0.01225250       8.12499869      -0.00098113       0.00136551       0.00308172
Fe       5.40975098       2.71207513       8.11894957      -0.00603412       0.00763952       0.00172855
Fe       8.12456214       2.69156539       5.41189394      -0.00717955       0.00703402       0.00433977
S        7.48639734       2.05490167       7.48075826      -0.00586340       0.00292360       0.00253999
S        6.03423985       3.35653625      10.19207220       0.00257984       0.00505093       0.01465709
S        8.76270073       4.76339955       6.04955925      -0.00646298       0.00318663       0.00247880
S       10.18701333       0.63192107       8.76641153      -0.00215587       0.00027922       0.00104284
S        8.75316129       3.33991431       8.76418030      -0.00463416       0.00440147      -0.00042089
S       10.19328009       2.05936274       6.05616791      -0.00266906       0.00137091      -0.00043580
S        7.47528021       0.63641240      10.19516404       0.00129558       0.00228802       0.00465241
S        6.08607894       4.72779106       7.45004565      -0.00597627       0.00626424       0.00152415
Fe       5.37780188       5.40088513       0.00917766       0.01948536      -0.00747445       0.02803325
Fe       8.10838427       5.40818803       2.70747013       0.00845636      -0.00044866       0.01286889
Fe       5.40769880       8.11459184       2.70689079      -0.00123310       0.00881528       0.00054199
Fe       8.11110612       8.12096044      -0.00102280       0.00204043       0.00572970       0.00067363
S        7.47350932       7.47692904       2.06662588      -0.00405360       0.00272614       0.00118142
S        6.05009542       8.74291667       4.77358502      -0.00047308      -0.00357846      -0.00043323
S        8.75310735      10.18723753       0.63952028       0.00337766      -0.00076799       0.00378235
S       10.18419466       6.04572206       3.34903364      -0.00003060       0.00006428      -0.00143622
S        8.75472011       8.75236352       3.34331801      -0.00301745      -0.00168767      -0.00161800
S       10.18125210       7.47832321       0.64151419      -0.00507664      -0.00189825      -0.00319742
S        7.48219083       6.04144607       4.78116711      -0.00294263       0.00265981      -0.00530213
S        6.04490212      10.18406226       2.07168020       0.00722634       0.00408111       0.00359903
Fe       5.41005888       5.40549207       5.45263983      -0.00904283      -0.00014115       0.00540394
Fe       8.09443228       5.40868921       8.12021042      -0.01184122       0.00280327       0.00130612
Fe       5.45996561       8.18473300       8.11565695       0.00141051       0.00254102      -0.00471026
Fe       8.12229494       8.11182902       5.41419422      -0.00123670       0.00058853       0.00065332
S        7.48711117       7.49861819       7.47489943       0.00057233       0.00069214      -0.00059521
S        6.05699285       8.77332058      10.19606259       0.00529364      -0.00091017       0.00099502
S        8.76015273      10.18188025       6.05399313      -0.00395796       0.00206177      -0.00055124
S       10.18327320       6.05485428       8.77772737      -0.01249762       0.00377361      -0.00310024
S        8.76723020       8.75184208       8.76743149      -0.00184862       0.00067594      -0.00035121
S       10.19342562       7.47599737       6.05909644      -0.00229677       0.00303596      -0.00346456
S        7.41765431       6.05913877      10.17582338       0.00036458      -0.00000180       0.01748582
S        6.05643195      10.18043620       7.48284092      -0.00232736       0.00736930      -0.00154858
H        4.65735099       5.76183545      -1.44930881       0.12998932       0.00034658       0.06755162
96
Lattice="10.832 0.0 0.0 0.0 10.832 0.0 0.0 0.0 10.832" Properties=species:S:1:pos:R:3:forces:R:3 spacegroup="P a -3" unit_cell=conventional mineral=pyrite rc=0.25 image_index=2 U_eV=0.0 nspin=1 source_file=results/dft_datasets/2026-05-01/pyr_prod_neb_W3/prod_essentials/neb.traj method=PBE_U0_ONCV vacancy_type=V_S2_dimer reaction=S2_dimer_hop energy=-128055.48721782243 pbc="T T T"
Fe      -0.00882435      -0.00623901       0.00462374       0.00143133       0.00100684      -0.00255902
Fe       2.70208266      -0.00951569       2.71602408       0.00379932       0.00056436      -0.00301025
Fe      -0.00600928       2.70090556       2.71301055      -0.00650643      -0.00119762      -0.00013164
Fe       2.69622464       2.69755025       0.01174881      -0.00734384       0.00342188      -0.00552710
S        2.06178701       2.06031467       2.07846326      -0.00365302       0.00196844      -0.00340080
S        0.63773124       3.33652336       4.78458308       0.00115674       0.00428757      -0.00414410
S        3.32408894       4.76641409       0.64858798       0.00867902       0.00301359      -0.00241838
S        4.77219985       0.63118082       3.34883965      -0.00027922       0.00437910      -0.00239601
S        3.34098016       3.33921561       3.35406082      -0.00334346       0.00418036      -0.00533015
S        4.76827233       2.06263987       0.63764742       0.00095491       0.00085901      -0.00260273
S        2.06776238       0.62740215       4.78669165      -0.00216873       0.00177663      -0.00702965
S        0.62691795       4.77088975       2.07702194      -0.01633165       0.00010439       0.00106855
Fe      -0.00095978      -0.01046632       5.42319138      -0.00310769       0.00299379      -0.00567288
Fe       2.70471861      -0.01080914       8.13274317      -0.00053505      -0.00065229      -0.00439864
Fe       0.00224856       2.70741237       8.13188066      -0.00362731      -0.00541192      -0.00466912
Fe       2.70951332       2.69694958       5.42548198      -0.00278476      -0.00457296      -0.00629766
S        2.07607132       2.06106358       7.49982673       0.00000977      -0.00950177      -0.00527719
S        0.62874456       3.33972631      10.20513709      -0.00663679       0.00345916       0.00467632
S        3.34047775       4.76247489       6.07859891      -0.01221454      -0.01134396      -0.01891355
S        4.76296517       0.62911756       8.77368143       0.00330772       0.00326633      -0.00208336
S        3.34092784       3.34651806       8.78524111      -0.00824373       0.00294108      -0.00465113
S        4.77572152       2.05955868       6.05497099       0.00575130      -0.00320642      -0.00246492
S        2.06311526       0.62857116      10.20248002      -0.00237236      -0.00195790       0.00011441
S        0.65225545       4.77244647       7.49469097      -0.02508497      -0.01128072      -0.00921201
Fe      -0.01968711       5.41337769       0.00629339       0.00448298       0.00034967      -0.00129378
Fe       2.69863186       5.40704580       2.71856085      -0.01038520      -0.00037281      -0.01433159
Fe      -0.00724612       8.11567614       2.71322832      -0.00169384      -0.00734307      -0.00397853
Fe       2.70111070       8.11412712       0.00486430       0.00630692      -0.00935547      -0.00501288
S        2.06300220       7.47818585       2.07683573      -0.00532758       0.00120688      -0.00059727
S        0.63639483       8.75210159       4.78372418       0.00065049      -0.00232119      -0.00365714
S        3.33767368      10.18334361       0.64421440       0.00332752       0.00273643       0.00093048
S        4.76800768       6.05081812       3.34084364      -0.00262921      -0.00328330       0.00567957
S        3.34128583       8.75179894       3.35103093      -0.00175838      -0.00154935      -0.00602024
S        4.75697854       7.46163595       0.60111924       0.00333215      -0.00084795       0.01069065
S        2.07310881       6.04499478       4.78703526       0.00686793      -0.00310152      -0.00636965
S        0.63075291      10.18585326       2.07562138       0.00271149      -0.00519440      -0.00174218
Fe       0.00366789       5.40766559       5.42710201       0.00028334       0.00002777       0.00014115
Fe       2.67566872       5.39203422       8.13796537      -0.04750653      -0.01659081      -0.04522390
Fe       0.00071149       8.11803315       8.13396092       0.00231245       0.00007816      -0.00596650
Fe       2.70590160       8.11109844       5.42626919      -0.00227723       0.00444569      -0.00369596
S        2.07516441       7.46955980       7.49712175      -0.01608276      -0.00001851      -0.01375977
S        0.63199006       8.75458137      10.20225893      -0.00178152       0.00159177       0.00322005
S        3.34111032      10.18108068       6.06316654      -0.00334526      -0.00196921      -0.00446909
S        3.35768481       8.73074144       8.77405328       0.00175735      -0.00882403       0.00211319
S        4.76783252       7.47590892       6.08340676       0.00055999      -0.00016686      -0.00461976
S        2.05770563       6.04428942      10.20782220       0.00471052      -0.00353167      -0.01027259
S        0.63851870      10.18413991       7.49229953      -0.00654114       0.00620047      -0.00485938
Fe       5.40705360      -0.00448779       0.00541580       0.00393893      -0.00132952      -0.00273488
Fe       8.11646453      -0.00978222       2.70818454       0.00085926       0.00578550       0.00250940
Fe       5.40905659       2.70419236       2.70751686      -0.00258884      -0.00797968       0.00772694
Fe       8.11187253       2.70614640      -0.00243504       0.00248163      -0.00410220       0.00026894
S        7.47733732       2.06297199       2.06806784      -0.00392222       0.00381500      -0.00015324
S        6.05532865       3.32931639       4.77169534      -0.00219392      -0.00374353      -0.00424438
S        8.73639580       4.77745208       0.62886541      -0.00192447       0.00791797      -0.00722300
S       10.18798311       0.63008247       3.35089562       0.00156477      -0.00177226       0.00011133
S        8.75580963       3.33745942       3.34336057      -0.00319357       0.00219161      -0.00507510
S       10.18316222       2.06526696       0.64179753      -0.00585260       0.00392222       0.00381577
S        7.48394694       0.62517551       4.77737287      -0.00112460      -0.00114440       0.00122950
S        6.03934208       4.77386815       2.05288415       0.00988255      -0.00542271       0.03232417
Fe       5.41290099      -0.01847479       5.42465175      -0.00132823       0.00109400      -0.00266983
Fe       8.11767386      -0.01224747       8.12555019      -0.00110917      -0.00041780       0.00190544
Fe       5.41279724       2.70973896       8.11883379      -0.00335658       0.00459790      -0.00386977
Fe       8.12634064       2.69189299       5.41133001      -0.00556515       0.00783827       0.00280713
S        7.48834507       2.05483892       7.48079806      -0.00441047       0.00123002      -0.00064329
S        6.03513636       3.35099906      10.19020993      -0.00311026       0.00962081       0.00460433
S        8.76593476       4.76374542       6.04898071      -0.00209776       0.00247109      -0.00088832
S       10.18895220       0.63250060       8.76735180      -0.00421969       0.00073199       0.00094128
S        8.75489390       3.34001003       8.76376899      -0.00173807       0.00489589      -0.00318611
S       10.19493733       2.06029093       6.05780944       0.00103024       0.00186148      -0.00030802
S        7.47660147       0.63497570      10.19538304      -0.00012984       0.00214610       0.00397724
S        6.08914097       4.72682075       7.44904961       0.00287398       0.00185454      -0.00773645
Fe       5.36353067       5.39871521      -0.00974245       0.02175770      -0.00390551       0.03229537
Fe       8.10712719       5.40840952       2.70227322       0.00690084       0.00061629       0.01305658
Fe       5.40820867       8.11344303       2.70555760      -0.00244023       0.00819976      -0.00129841
Fe       8.11076432       8.11998867      -0.00145999      -0.00036664       0.00709547       0.00147504
S        7.47394506       7.47689531       2.06523581      -0.00820362       0.00353167      -0.00207797
S        6.05063799       8.74292835       4.77403223       0.00148455      -0.00442693      -0.00396336
S        8.75421571      10.18653979       0.64007428       0.00104155      -0.00109452       0.00311335
S       10.18491711       6.04526589       3.35127925      -0.00034478       0.00183448       0.00010979
S        8.75598581       8.75234087       3.34416486      -0.00406440      -0.00013987      -0.00106315
S       10.18145694       7.47813285       0.64274425      -0.00897392      -0.00186225      -0.00227568
S        7.48406803       6.04188429       4.78004865      -0.00071734       0.00184374      -0.00994786
S        6.04628430      10.18342709       2.07173273       0.00619353       0.00672215       0.00305293
Fe       5.41565615       5.40522314       5.44774813      -0.00738755      -0.00245129       0.00448015
Fe       8.09680491       5.40850812       8.11887887      -0.00769711       0.00318020      -0.00446061
Fe       5.45825571       8.18359462       8.11549417       0.00760147       0.00427832      -0.00635962
Fe       8.12360776       8.11221322       5.41426504       0.00137271      -0.00079267      -0.00221501
S        7.48717996       7.49839499       7.47470708       0.00426289      -0.00094797      -0.00335658
S        6.05651647       8.77205168      10.19466206       0.00513629       0.00207951       0.00192704
S        8.76165100      10.18221229       6.05460438      -0.00332598       0.00082867       0.00033939
S       10.18838512       6.05405100       8.77770056      -0.01409427       0.00470383      -0.00351084
S        8.76863988       8.75163952       8.76711526      -0.00350493      -0.00202577      -0.00114234
S       10.19597097       7.47630343       6.06092706      -0.00066257       0.00301359      -0.00009693
S        7.41821551       6.05966495      10.17022496      -0.01142290       0.00145653       0.00622181
S        6.05787843      10.17965813       7.48374863      -0.00183500       0.00786629      -0.00421789
H        4.52711950       5.73939212      -1.53289840       0.18569330      -0.01692969       0.16585132
96
Lattice="10.832 0.0 0.0 0.0 10.832 0.0 0.0 0.0 10.832" Properties=species:S:1:pos:R:3:forces:R:3 spacegroup="P a -3" unit_cell=conventional mineral=pyrite rc=0.375 image_index=3 U_eV=0.0 nspin=1 source_file=results/dft_datasets/2026-05-01/pyr_prod_neb_W3/prod_essentials/neb.traj method=PBE_U0_ONCV vacancy_type=V_S2_dimer reaction=S2_dimer_hop energy=-128055.45556690129 pbc="T T T"
Fe      -0.00810147      -0.00643967       0.00587452       0.00178974       0.00137554      -0.00300099
Fe       2.70306728      -0.00905402       2.71744664       0.00253305       0.00138685      -0.00143030
Fe      -0.00554235       2.70089100       2.71419840      -0.00655966      -0.00004345       0.00164165
Fe       2.69693153       2.69723050       0.01383331      -0.00847616       0.00436625      -0.00116420
S        2.06222863       2.06042169       2.08030264      -0.00484730       0.00183731      -0.00221243
S        0.63842547       3.33730823       4.78665216       0.00274388       0.00453465      -0.00224869
S        3.32180252       4.76466661       0.65485547       0.00343577       0.00161542      -0.00279942
S        4.77309149       0.63148769       3.35018264      -0.00185042       0.00411377      -0.00170644
S        3.34126857       3.33941931       3.35686768      -0.00321208       0.00345659      -0.00183140
S        4.76796303       2.06065196       0.63877667       0.00000154      -0.00088472      -0.00318714
S        2.06863746       0.62837496       4.78838182      -0.00384611       0.00377644      -0.00439324
S        0.62662931       4.77083728       2.07861572      -0.01546956      -0.00029079       0.00530933
Fe      -0.00030430      -0.01028863       5.42421317      -0.00220729       0.00412405      -0.00436805
Fe       2.70554828      -0.00913268       8.13445716      -0.00029362       0.00090194      -0.00238136
Fe       0.00241279       2.70769717       8.13305262      -0.00247032      -0.00647507      -0.00358540
Fe       2.71054256       2.69821744       5.42823645      -0.00086286      -0.00530341      -0.00490464
S        2.07617807       2.06331761       7.50183746       0.00222092      -0.00795551      -0.00294906
S        0.62924824       3.33944679      10.20564408      -0.00507613       0.00452900       0.00662445
S        3.34729726       4.76542951       6.08372875      -0.00568908      -0.00901686      -0.01086471
S        4.76363731       0.62922483       8.77427870       0.00416802       0.00527282      -0.00027588
S        3.34364945       3.34817888       8.78764460      -0.00579115       0.00449866      -0.00247726
S        4.77610516       2.05998302       6.05625952       0.00794162      -0.00351058      -0.00274260
S        2.06371788       0.62881288      10.20340847      -0.00207642       0.00028462       0.00157197
S        0.65632332       4.77401803       7.49857263      -0.02102031      -0.01076547      -0.00576081
Fe      -0.01848521       5.41300992       0.00738998       0.00373350       0.00143313       0.00127784
Fe       2.69902134       5.40696557       2.72191022      -0.00557287      -0.00091274      -0.01158231
Fe      -0.00676482       8.11558438       2.71423199      -0.00282179      -0.00712453      -0.00083509
Fe       2.70110049       8.11477816       0.00715974       0.00401066      -0.00929659      -0.00207411
S        2.06318968       7.47829941       2.07865657      -0.00512884       0.00112511       0.00276162
S        0.63726504       8.75221906       4.78518359       0.00085952      -0.00206305      -0.00084924
S        3.33821456      10.18351838       0.64542259       0.00042886       0.00376410       0.00291049
S        4.76751994       6.05205124       3.34140011      -0.00148353      -0.00392376       0.00368850
S        3.34150895       8.75208764       3.35255413      -0.00257779      -0.00040212      -0.00309895
S        4.75619159       7.46241949       0.60205383      -0.00026020      -0.00134186       0.00393687
S        2.07421886       6.04506038       4.79201008       0.00909322      -0.00300845      -0.00019438
S        0.63173564      10.18589332       2.07685061       0.00052476      -0.00495143      -0.00193578
Fe       0.00471606       5.40800374       5.42906747       0.00058775      -0.00036458      -0.00106547
Fe       2.69510821       5.39694247       8.15326453      -0.04325727      -0.01523173      -0.03636594
Fe       0.00215512       8.11751444       8.13516277       0.00510210       0.00169384      -0.00326479
Fe       2.70688018       8.11167445       5.42783379      -0.00074408       0.00522860      -0.00059392
S        2.08174872       7.47042942       7.50257580      -0.01127583       0.00141076      -0.00830955
S        0.63249173       8.75455681      10.20340201      -0.00155655       0.00288066       0.00432382
S        3.34166266      10.18178784       6.06425430      -0.00327507       0.00052451      -0.00213324
S        3.35651863       8.73535667       8.77440184       0.00079190      -0.00590454       0.00313906
S        4.76818063       7.47565841       6.08251119       0.00161517       0.00001028      -0.00179617
S        2.05960181       6.04508735      10.21128477      -0.00004191      -0.00303005      -0.00437859
S        0.63940822      10.18398028       7.49351540      -0.00528490       0.00939121      -0.00402918
Fe       5.40751688      -0.00550174       0.00622785       0.00454905      -0.00135677      -0.00125701
Fe       8.11717051      -0.00988537       2.70898989       0.00092483       0.00557724       0.00278348
Fe       5.40939784       2.70457788       2.70638313      -0.00310795      -0.00564254       0.00423923
Fe       8.11260270       2.70545745      -0.00145672       0.00097471      -0.00267858       0.00056513
S        7.47821805       2.06266477       2.06872115      -0.00372373       0.00336660      -0.00127012
S        6.05649311       3.33044026       4.77165892      -0.00003445      -0.00292849      -0.00460922
S        8.73789389       4.77628190       0.62947967      -0.00357923       0.00753976      -0.00989798
S       10.18894050       0.62999442       3.35229097       0.00001723      -0.00109426      -0.00037564
S        8.75614603       3.33742312       3.34395259      -0.00263975       0.00257547      -0.00595133
S       10.18422084       2.06480629       0.64304593      -0.00482802       0.00469946       0.00210419
S        7.48466136       0.62554494       4.77828221      -0.00143005      -0.00183243       0.00141076
S        6.03852338       4.77462601       2.04807965       0.00796116      -0.00485836       0.02372691
Fe       5.41347844      -0.01778804       5.42556294      -0.00030982       0.00153366      -0.00442281
Fe       8.11852901      -0.01203460       8.12639137      -0.00110043      -0.00201472       0.00145756
Fe       5.41410029       2.70952787       8.12024962       0.00169641       0.00236824      -0.00501905
Fe       8.12684634       2.69237056       5.41163294      -0.00329821       0.00743640       0.00290149
S        7.48883745       2.05536743       7.48149043      -0.00164731      -0.00010567      -0.00107318
S        6.03727476       3.34703080      10.19259782      -0.00258704       0.00510595      -0.00079036
S        8.76675065       4.76433641       6.04944912       0.00329873       0.00139200      -0.00232299
S       10.19012791       0.63290401       8.76824683      -0.00470049       0.00031933      -0.00015041
S        8.75513956       3.34006654       8.76389249       0.00359415       0.00381372      -0.00396773
S       10.19544738       2.06083972       6.05907457       0.00376024       0.00207514       0.00023783
S        7.47749428       0.63400836      10.19593287      -0.00004319      -0.00032370       0.00425929
S        6.08906785       4.72748527       7.44977300       0.01018105      -0.00153829      -0.01111668
Fe       5.36164437       5.39423734      -0.00935154       0.01498105      -0.00358360       0.01950542
Fe       8.10716967       5.40870384       2.70048649       0.00352447       0.00075230       0.00936679
Fe       5.40847807       8.11349174       2.70591330      -0.00220678       0.00392325      -0.00281356
Fe       8.11120813       8.11951335      -0.00100466      -0.00134057       0.00525893       0.00277396
S        7.47456726       7.47754596       2.06561696      -0.00823884       0.00299534      -0.00365637
S        6.05065819       8.74301561       4.77526065       0.00191162      -0.00377027      -0.00533941
S        8.75516612      10.18636831       0.64089374      -0.00000617      -0.00225794       0.00185248
S       10.18565154       6.04513086       3.35308367       0.00003574       0.00289918       0.00280816
S        8.75674034       8.75251286       3.34525525      -0.00350056       0.00065075      -0.00007610
S       10.18228151       7.47803707       0.64358412      -0.00790666      -0.00211062      -0.00020723
S        7.48495314       6.04241306       4.77997269       0.00096365       0.00105595      -0.00930482
S        6.04736790      10.18337763       2.07238487       0.00439864       0.00669670       0.00320154
Fe       5.41863485       5.40525651       5.44416115      -0.00280842      -0.00288812       0.00329975
Fe       8.09619795       5.40888652       8.11966606      -0.00322031       0.00213530      -0.00669515
Fe       5.45614293       8.18292024       8.11515311       0.00999825       0.00411531      -0.00644036
Fe       8.12415182       8.11247911       5.41493109       0.00294263      -0.00153983      -0.00356303
S        7.48628905       7.49811325       7.47535574       0.00695483      -0.00124724      -0.00364762
S        6.05649678       8.77045390      10.19407081       0.00435673       0.00292232       0.00133440
S        8.76237123      10.18245623       6.05543153      -0.00277165       0.00045791       0.00169333
S       10.19162334       6.05317585       8.77757593      -0.01033455       0.00318714      -0.00287655
S        8.76928697       8.75153174       8.76729141      -0.00245463      -0.00463390      -0.00151721
S       10.19720669       7.47644962       6.06231808       0.00101327       0.00227131       0.00351367
S        7.42150128       6.05948844      10.17139474      -0.01069245       0.00052451      -0.00138814
S        6.05865379      10.17947775       7.48501074      -0.00171570       0.00746494      -0.00467709
H        4.43505739       5.73954473      -1.61913619       0.12363458      -0.02044336       0.12099560
96
Lattice="10.832 0.0 0.0 0.0 10.832 0.0 0.0 0.0 10.832" Properties=species:S:1:pos:R:3:forces:R:3 spacegroup="P a -3" unit_cell=conventional mineral=pyrite rc=0.5 image_index=4 U_eV=0.0 nspin=1 source_file=results/dft_datasets/2026-05-01/pyr_prod_neb_W3/prod_essentials/neb.traj method=PBE_U0_ONCV vacancy_type=V_S2_dimer reaction=S2_dimer_hop energy=-128055.44584740314 pbc="T T T"
Fe      -0.00768033      -0.00664117       0.00652026       0.00288761       0.00101687      -0.00317660
Fe       2.70353716      -0.00887343       2.71809619       0.00208979       0.00172212      -0.00022677
Fe      -0.00535306       2.70079590       2.71471574      -0.00574847       0.00060292       0.00295137
Fe       2.69757513       2.69709957       0.01480623      -0.00710884       0.00455471       0.00244126
S        2.06238410       2.06041881       2.08109436      -0.00452951       0.00142311      -0.00106187
S        0.63870516       3.33764770       4.78763261       0.00356406       0.00476400      -0.00002057
S        3.32173888       4.76334547       0.65930288       0.00178177      -0.00132952       0.00110789
S        4.77347857       0.63150782       3.35091229      -0.00297117       0.00359852      -0.00025274
S        3.34123187       3.33934546       3.35837464      -0.00226206       0.00294468       0.00185557
S        4.76777103       2.05909667       0.63944836      -0.00021572      -0.00345916      -0.00232068
S        2.06910834       0.62877302       4.78920279      -0.00526999       0.00556361      -0.00232736
S        0.62656721       4.77075656       2.07930529      -0.01292802      -0.00102870       0.00795756
Fe      -0.00001425      -0.01035325       5.42469676      -0.00177689       0.00485938      -0.00369442
Fe       2.70597332      -0.00798334       8.13537850      -0.00048285       0.00223223      -0.00110969
Fe       0.00222702       2.70779675       8.13347170      -0.00363631      -0.00802441      -0.00317531
Fe       2.71100751       2.69875984       5.42966414       0.00012804      -0.00543017      -0.00368542
S        2.07610214       2.06464711       7.50274391       0.00247340      -0.00610071      -0.00141951
S        0.62971926       3.33936069      10.20558328      -0.00271637       0.00458505       0.00742920
S        3.35124735       4.76704679       6.08624915      -0.00029851      -0.00508564      -0.00229394
S        4.76391942       0.62949938       8.77455616       0.00432922       0.00707542       0.00209648
S        3.34549516       3.35025158       8.78870504      -0.00400166       0.00837871      -0.00103847
S        4.77624654       2.06009475       6.05709613       0.00789046      -0.00267266      -0.00114286
S        2.06398614       0.62902045      10.20374739      -0.00102304       0.00166145       0.00193321
S        0.65743019       4.77445917       7.50033591      -0.02122831      -0.01047236      -0.00281767
Fe      -0.01705487       5.41248423       0.00783443       0.00523631       0.00100042       0.00424103
Fe       2.69901436       5.40682099       2.72380961      -0.00110120      -0.00144625      -0.00820053
Fe      -0.00651473       8.11548153       2.71464488      -0.00280045      -0.00682576       0.00110300
Fe       2.70150990       8.11470191       0.00822677       0.00381089      -0.00990852      -0.00044866
S        2.06319647       7.47817164       2.07950171      -0.00355686       0.00050059       0.00418576
S        0.63771446       8.75214418       4.78590197       0.00082892      -0.00161362       0.00102484
S        3.33852946      10.18357366       0.64595417      -0.00143339       0.00342805       0.00391528
S        4.76697535       6.05281938       3.34266141      -0.00073019      -0.00349644       0.00471977
S        3.34145568       8.75224063       3.35330365      -0.00260376       0.00027022      -0.00071477
S        4.75647656       7.46267904       0.60397595      -0.00038104      -0.00258576       0.00193167
S        2.07465937       6.04489908       4.79468474       0.00982650      -0.00316683       0.00529570
S        0.63222581      10.18585336       2.07746624      -0.00037770      -0.00475988      -0.00259861
Fe       0.00498908       5.40800292       5.43012650      -0.00091866      -0.00056333      -0.00230834
Fe       2.70738690       5.40016803       8.16167156      -0.03018064      -0.01086985      -0.02366469
Fe       0.00298700       8.11699959       8.13568689       0.00661468       0.00377824      -0.00173987
Fe       2.70734062       8.11197046       5.42849345       0.00019283       0.00625524       0.00141976
S        2.08576148       7.47076262       7.50545294      -0.00662599       0.00149124      -0.00364634
S        0.63296198       8.75434152      10.20396030      -0.00045251       0.00342702       0.00382297
S        3.34189735      10.18204267       6.06475545      -0.00355764       0.00250400      -0.00037307
S        3.35583119       8.73815975       8.77434368      -0.00070140      -0.00234716       0.00280250
S        4.76826162       7.47547489       6.08156697       0.00143879       0.00048568       0.00041472
S        2.06272997       6.04552299      10.21213171       0.00076542      -0.00190005      -0.00213890
S        0.63983460      10.18373547       7.49417563      -0.00417496       0.01107220      -0.00357640
Fe       5.40771599      -0.00626844       0.00659961       0.00508796      -0.00226977       0.00042783
Fe       8.11746268      -0.00995787       2.70940723       0.00188308       0.00519980       0.00281536
Fe       5.40955905       2.70443049       2.70608308      -0.00276342      -0.00381089       0.00254668
Fe       8.11328361       2.70466034      -0.00097296       0.00099527      -0.00277756       0.00169770
S        7.47870112       2.06238468       2.06907019      -0.00260350       0.00206845      -0.00131872
S        6.05706814       3.33087897       4.77166114       0.00148738      -0.00137091      -0.00255028
S        8.73985878       4.77543525       0.62992285      -0.00101841       0.00595596      -0.01025973
S       10.18944906       0.62986846       3.35306008      -0.00097985      -0.00066849      -0.00124287
S        8.75642888       3.33731439       3.34431072      -0.00126035       0.00239781      -0.00509361
S       10.18492333       2.06444928       0.64362361      -0.00239164       0.00434799       0.00078059
S        7.48504469       0.62562512       4.77869921      -0.00186765      -0.00181546       0.00204043
S        6.03906935       4.77446961       2.04741808       0.00891144      -0.00600610       0.02057320
Fe       5.41377046      -0.01748927       5.42612341       0.00017689       0.00233585      -0.00487970
Fe       8.11891090      -0.01199187       8.12675681      -0.00109066      -0.00243586       0.00157557
Fe       5.41466098       2.71007195       8.12148196       0.00545074       0.00243098      -0.00254308
Fe       8.12698757       2.69257343       5.41174008      -0.00192910       0.00725565       0.00405617
S        7.48895052       2.05569194       7.48178645       0.00011081       0.00025634       0.00006736
S        6.03941551       3.34450376      10.19549814       0.00198001      -0.00143853       0.00109375
S        8.76690124       4.76466298       6.04970662       0.00646298       0.00079139      -0.00208568
S       10.19078064       0.63305891       8.76870121      -0.00395101      -0.00033142      -0.00120842
S        8.75501098       3.33995038       8.76382102       0.00789740       0.00279119      -0.00384534
S       10.19563922       2.06098780       6.05967423       0.00506944       0.00232788       0.00081093
S        7.47793263       0.63332427      10.19607611       0.00109992      -0.00282770       0.00504270
S        6.08841495       4.72821212       7.45021141       0.01245340      -0.00124287      -0.00997562
Fe       5.36551324       5.38959621      -0.00105079       0.01945477      -0.00969974       0.02472733
Fe       8.10770306       5.40882084       2.70000463       0.00200906       0.00034581       0.00705896
Fe       5.40859067       8.11381979       2.70635576      -0.00128632       0.00085206      -0.00293569
Fe       8.11168819       8.11920833      -0.00076094      -0.00035970       0.00336197       0.00391091
S        7.47502108       7.47807885       2.06605541      -0.00676046       0.00259321      -0.00351187
S        6.05061543       8.74299944       4.77596777       0.00147941      -0.00321388      -0.00512215
S        8.75567464      10.18627991       0.64126890       0.00037461      -0.00312723       0.00094334
S       10.18625689       6.04508099       3.35406668       0.00111149       0.00338331       0.00499822
S        8.75711034       8.75261316       3.34582617      -0.00251428       0.00064715       0.00052939
S       10.18299727       7.47788087       0.64392233      -0.00490335      -0.00241427       0.00115571
S        7.48545404       6.04268745       4.77986090       0.00183088       0.00069445      -0.00671598
S        6.04792776      10.18337205       2.07269235       0.00368491       0.00595905       0.00395539
Fe       5.42024742       5.40523929       5.44155655       0.00021597      -0.00185479       0.00242352
Fe       8.09490212       5.40919656       8.12052035      -0.00200726       0.00174578      -0.00577778
Fe       5.45473973       8.18283190       8.11435220       0.01042839       0.00470640      -0.00741120
Fe       8.12444754       8.11250028       5.41526602       0.00376512      -0.00166813      -0.00404615
S        7.48549500       7.49783864       7.47563722       0.00847076      -0.00081710      -0.00296937
S        6.05663612       8.76920298      10.19350958       0.00458299       0.00235487      -0.00006813
S        8.76278561      10.18243779       6.05582468      -0.00262844       0.00058081       0.00277962
S       10.19353916       6.05239469       8.77723665      -0.00729679       0.00091248      -0.00281459
S        8.76960100       8.75129929       8.76729321      -0.00038335      -0.00596393      -0.00158946
S       10.19785315       7.47636676       6.06307275       0.00226180       0.00164602       0.00569834
S        7.42455394       6.05910281      10.17382827      -0.00307761      -0.00134546      -0.00080347
S        6.05916976      10.17952856       7.48566769      -0.00149458       0.00751482      -0.00400166
H        4.37294934       5.74388785      -1.68445825       0.01576575      -0.01446631       0.00758501
96
Lattice="10.832 0.0 0.0 0.0 10.832 0.0 0.0 0.0 10.832" Properties=species:S:1:pos:R:3:forces:R:3 spacegroup="P a -3" unit_cell=conventional mineral=pyrite rc=0.625 image_index=5 U_eV=0.0 nspin=1 source_file=results/dft_datasets/2026-05-01/pyr_prod_neb_W3/prod_essentials/neb.traj method=PBE_U0_ONCV vacancy_type=V_S2_dimer reaction=S2_dimer_hop energy=-128055.4702492116 pbc="T T T"
Fe      -0.00631589      -0.00744272       0.00795281       0.00539469       0.00011313      -0.00370059
Fe       2.70455240      -0.00868229       2.71939062       0.00135651       0.00125496       0.00106187
Fe      -0.00455755       2.70051890       2.71594629      -0.00365919       0.00073688       0.00474009
Fe       2.69961253       2.69708448       0.01656317      -0.00445238       0.00356278       0.00549728
S        2.06321166       2.06039389       2.08260603      -0.00311643       0.00083175       0.00052425
S        0.63893756       3.33832149       4.78956784       0.00314883       0.00386000       0.00147556
S        3.32482333       4.76045705       0.66661010       0.00542580      -0.00529544       0.00313058
S        4.77407548       0.63125590       3.35280849      -0.00416724       0.00245386       0.00167739
S        3.34144266       3.33926661       3.36144279      -0.00095311       0.00153675       0.00546231
S        4.76781993       2.05565202       0.64142973       0.00072505      -0.00713173       0.00023654
S        2.06978405       0.62961992       4.79087984      -0.00664270       0.00668513      -0.00001903
S        0.62746613       4.77051760       2.08051828      -0.00652237      -0.00215098       0.01065542
Fe       0.00031192      -0.01043455       5.42572007      -0.00092611       0.00501108      -0.00270017
Fe       2.70644605      -0.00575115       8.13713132       0.00073636       0.00263718       0.00084744
Fe       0.00036695       2.70723113       8.13421133      -0.00798765      -0.01077292      -0.00318251
Fe       2.71157235       2.69964631       5.43212999      -0.00010053      -0.00606112      -0.00338151
S        2.07560873       2.06689274       7.50448599       0.00132026      -0.00648355      -0.00007816
S        0.63110997       3.33907740      10.20547329       0.00129095       0.00499874       0.00798482
S        3.35560593       4.77034502       6.09042524      -0.00272511      -0.00087752       0.00462027
S        4.76416278       0.63092905       8.77598589       0.00410117       0.01053921       0.00527230
S        3.34744932       3.35708582       8.78948831      -0.00705048       0.01592850      -0.00247469
S        4.77607216       2.06072619       6.05956011       0.00799870       0.00036870       0.00218390
S        2.06480438       0.62929487      10.20453060       0.00087597       0.00335760       0.00235924
S        0.65269054       4.77341277       7.50164358      -0.03138340      -0.01283083      -0.00308661
Fe      -0.01314984       5.41075287       0.00918172       0.00809255      -0.00075796       0.00801233
Fe       2.69945942       5.40671585       2.72675372       0.00450380      -0.00231528      -0.00519877
Fe      -0.00556960       8.11525800       2.71537557      -0.00166325      -0.00636837       0.00302825
Fe       2.70383923       8.11336455       0.00904784       0.00424798      -0.01195923      -0.00035481
S        2.06398217       7.47754798       2.08053504      -0.00036510      -0.00122436       0.00520314
S        0.63845758       8.75207017       4.78719279       0.00086518      -0.00110789       0.00263898
S        3.33946375      10.18312817       0.64704231      -0.00294417       0.00211088       0.00413176
S        4.76615618       6.05419516       3.34661319       0.00053736      -0.00322134       0.00956579
S        3.34153480       8.75238826       3.35466870      -0.00235179       0.00108218       0.00133286
S        4.75892572       7.46156918       0.60763645       0.00249166      -0.00466244       0.00245232
S        2.07502703       6.04434871       4.79871244       0.00757087      -0.00343397       0.00612128
S        0.63344144      10.18562695       2.07866005      -0.00133055      -0.00432434      -0.00330284
Fe       0.00328640       5.40778037       5.43135609      -0.00674709      -0.00127758      -0.00566877
Fe       2.71587055       5.40437748       8.16703197      -0.02039296      -0.00421018      -0.01479079
Fe       0.00422601       8.11647955       8.13647091       0.00643727       0.00625421      -0.00110840
Fe       2.70796380       8.11290447       5.42936954      -0.00000566       0.00739552       0.00192319
S        2.09081927       7.47056955       7.50879534      -0.00750351       0.00022909      -0.00219007
S        0.63448814       8.75346729      10.20474594       0.00361626       0.00369827       0.00295600
S        3.34196035      10.18268900       6.06590742      -0.00413562       0.00464110       0.00156580
S        3.35498859       8.74280893       8.77387054      -0.00222940      -0.00254462       0.00112717
S        4.76814853       7.47598864       6.07988933       0.00016455       0.00215767       0.00290098
S        2.07098336       6.04579516      10.20986687       0.00195250      -0.00206305      -0.00573305
S        0.64040086      10.18318557       7.49551727      -0.00281382       0.01341113      -0.00257650
Fe       5.40833861      -0.00800649       0.00792567       0.00656737      -0.00384303       0.00289043
Fe       8.11822018      -0.01021800       2.71053957       0.00316400       0.00418473       0.00352035
Fe       5.41027478       2.70379974       2.70706775      -0.00128375      -0.00255722       0.00359029
Fe       8.11552672       2.70231015       0.00055315       0.00338409      -0.00431971       0.00349979
S        7.48008489       2.06144103       2.07042485       0.00032319       0.00016301      -0.00011467
S        6.05784237       3.33173172       4.77318918       0.00274080       0.00106135       0.00256108
S        8.74584390       4.77323354       0.63157039       0.00588526       0.00174372      -0.00775702
S       10.19053480       0.62961747       3.35450601      -0.00182291      -0.00068391      -0.00164859
S        8.75752127       3.33688418       3.34569387       0.00138120       0.00157146      -0.00258010
S       10.18720397       2.06345023       0.64483279       0.00252482       0.00333961      -0.00039646
S        7.48563663       0.62580713       4.77990986      -0.00181803      -0.00184220       0.00312106
S        6.04244216       4.77220167       2.05148974       0.01336562      -0.00896081       0.02407581
Fe       5.41415664      -0.01669485       5.42777880       0.00110095       0.00316914      -0.00418524
Fe       8.11946539      -0.01182902       8.12783195      -0.00241478      -0.00345068       0.00257933
Fe       5.41516781       2.71303370       8.12544305       0.00716155       0.00645810       0.00245129
Fe       8.12690415       2.69311315       5.41274695      -0.00093562       0.00689056       0.00645038
S        7.48886467       2.05667314       7.48323774       0.00070063       0.00247134       0.00284133
S        6.04550249       3.33919968      10.20370735       0.00874561      -0.00873147       0.00824090
S        8.76645327       4.76547270       6.05052990       0.00674837       0.00034350      -0.00212707
S       10.19221693       0.63284460       8.76978819      -0.00293389      -0.00134392      -0.00171544
S        8.75474022       3.33938427       8.76425520       0.01195383       0.00053530      -0.00170130
S       10.19562931       2.06095517       6.06101438       0.00575310       0.00142002       0.00167867
S        7.47921278       0.63155114      10.19696797       0.00332572      -0.00617193       0.00606575
S        6.08646089       4.73092579       7.45255651       0.01064205       0.00268706      -0.00406363
Fe       5.38107262       5.37823304       0.02433443       0.03266535      -0.01849292       0.04140402
Fe       8.10948818       5.40862805       2.70055062       0.00199003      -0.00054507       0.00633340
Fe       5.40939061       8.11441259       2.70767491       0.00080450      -0.00120250      -0.00122899
Fe       8.11360687       8.11839953       0.00011584       0.00322339       0.00050111       0.00552350
S        7.47636727       7.47882371       2.06748801      -0.00231348       0.00211268      -0.00183885
S        6.05045351       8.74303901       4.77743288       0.00212605      -0.00157454      -0.00456782
S        8.75710655      10.18582121       0.64227977       0.00195481      -0.00448606       0.00003368
S       10.18797513       6.04510053       3.35587957       0.00286498       0.00394099       0.00649358
S        8.75804463       8.75257478       3.34701556      -0.00010799       0.00067363       0.00180054
S       10.18545374       7.47721199       0.64478366       0.00155963      -0.00222169       0.00233096
S        7.48618025       6.04328697       4.78054912       0.00138480       0.00009410      -0.00208542
S        6.04912326      10.18312304       2.07377043       0.00312646       0.00438450       0.00500568
Fe       5.42226850       5.40597542       5.43845857       0.00106495       0.00027357       0.00359903
Fe       8.09110825       5.41033223       8.12348876      -0.00328767       0.00293800      -0.00117217
Fe       5.45314651       8.18472528       8.11179547       0.01034560       0.00578395      -0.00854943
Fe       8.12500504       8.11263091       5.41612766       0.00468301      -0.00162031      -0.00334680
S        7.48430481       7.49813081       7.47639384       0.01006715      -0.00040315      -0.00128324
S        6.05788915       8.76686607      10.19223331       0.00660336      -0.00007482      -0.00039775
S        8.76339193      10.18253137       6.05680138      -0.00168587       0.00034093       0.00450252
S       10.19575233       6.05054289       8.77661427      -0.00734976      -0.00138942      -0.00244101
S        8.77071625       8.75082270       8.76765298       0.00149021      -0.00720397      -0.00127295
S       10.19879167       7.47623473       6.06453608       0.00197281       0.00055510       0.00712504
S        7.43274243       6.05775716      10.18142155       0.01109997      -0.00428963       0.00580632
S        6.06036604      10.18092040       7.48712831      -0.00110249       0.00878726      -0.00219495
H        4.25156399       5.76321427      -1.83045667      -0.10812312       0.01520268      -0.15799763
96
Lattice="10.832 0.0 0.0 0.0 10.832 0.0 0.0 0.0 10.832" Properties=species:S:1:pos:R:3:forces:R:3 spacegroup="P a -3" unit_cell=conventional mineral=pyrite rc=0.75 image_index=6 U_eV=0.0 nspin=1 source_file=results/dft_datasets/2026-05-01/pyr_prod_neb_W3/prod_essentials/neb.traj method=PBE_U0_ONCV vacancy_type=V_S2_dimer reaction=S2_dimer_hop energy=-128055.50580972833 pbc="T T T"
Fe      -0.00441220      -0.00885669       0.00930501       0.00663242      -0.00087186      -0.00422844
Fe       2.70571644      -0.00900560       2.72036623       0.00058724      -0.00041600       0.00043914
Fe      -0.00333504       2.69988478       2.71713085      -0.00192241      -0.00033861       0.00486016
Fe       2.70191628       2.69694684       0.01752263      -0.00216358       0.00314137       0.00434311
S        2.06466456       2.06012201       2.08365749      -0.00187408      -0.00071991      -0.00048157
S        0.63872724       3.33846782       4.79086144       0.00048671       0.00151464       0.00061681
S        3.33027206       4.75759407       0.66979306       0.00828281      -0.00561555      -0.00419244
S        4.77465974       0.63052817       3.35471628      -0.00462696       0.00083689       0.00205071
S        3.34200880       3.33903903       3.36367810      -0.00075153      -0.00004911       0.00397441
S        4.76849336       2.05216064       0.64354312       0.00203169      -0.00559678       0.00166196
S        2.07031969       0.63003765       4.79212951      -0.00751071       0.00509413       0.00016995
S        0.62931102       4.76995636       2.08116002      -0.00027845      -0.00317711       0.00796065
Fe       0.00046757      -0.01075705       5.42663389      -0.00091917       0.00361009      -0.00308327
Fe       2.70661284      -0.00479173       8.13840237       0.00007533      -0.00150924      -0.00079858
Fe      -0.00301987       2.70533181       8.13463028      -0.01007872      -0.01234284      -0.00274440
Fe       2.71146784       2.69988445       5.43332896      -0.00093100      -0.00741815      -0.00586931
S        2.07496848       2.06742786       7.50579999      -0.00044300      -0.00774725      -0.00051371
S        0.63261497       3.33844090      10.20543268       0.00284467       0.00427292       0.00638456
S        3.35355407       4.77288629       6.09219347      -0.01557189      -0.00114208       0.00141796
S        4.76402873       0.63263346       8.77785077       0.00246132       0.01060683       0.00726619
S        3.34650448       3.36569235       8.78824199      -0.01286914       0.01397806      -0.00473443
S        4.77563501       2.06164798       6.06213515       0.00465575       0.00229651       0.00420093
S        2.06595464       0.62894736      10.20528320       0.00232865       0.00356895       0.00133389
S        0.64175475       4.77006366       7.50031441      -0.03642868      -0.01376929      -0.00610560
Fe      -0.00932694       5.40851122       0.01058671       0.00776216      -0.00115674       0.00988641
Fe       2.70029464       5.40655399       2.72762372       0.00681471      -0.00226103      -0.00702271
Fe      -0.00420528       8.11469862       2.71575615      -0.00052116      -0.00459045       0.00294674
Fe       2.70708559       8.11073442       0.00825210       0.00487353      -0.01251510      -0.00466809
S        2.06548194       7.47641701       2.08033621       0.00195224      -0.00277653       0.00304650
S        0.63899471       8.75181879       4.78785065      -0.00078419      -0.00042552       0.00154806
S        3.34082015      10.18175212       0.64781000      -0.00318791       0.00013318       0.00268783
S        4.76573814       6.05477891       3.35100430       0.00176995      -0.00410142       0.00972983
S        3.34192167       8.75209823       3.35539861      -0.00160668       0.00105210       0.00032807
S        4.76258773       7.45878079       0.61027287       0.00448863      -0.00454622       0.00182960
S        2.07439395       6.04345191       4.79939578       0.00156503      -0.00346173      -0.00130406
S        0.63498547      10.18497133       2.07964477      -0.00174141      -0.00382272      -0.00435879
Fe      -0.00078577       5.40706269       5.43105789      -0.01161187      -0.00102690      -0.01022888
Fe       2.70105999       5.40464161       8.15706160      -0.02389583      -0.00074948      -0.02114964
Fe       0.00421304       8.11635429       8.13643504       0.00355378       0.00869187      -0.00149047
Fe       2.70788864       8.11379821       5.42911172      -0.00039029       0.00568908      -0.00003291
S        2.08975479       7.46911137       7.50782152      -0.01922208      -0.00245360      -0.00846356
S        0.63653946       8.75203445      10.20497280       0.00516766       0.00222683       0.00072248
S        3.34168281      10.18293845       6.06694036      -0.00461770       0.00496917       0.00146347
S        3.35451813       8.74426466       8.77280932      -0.00163496      -0.00815143       0.00004242
S        4.76758842       7.47717588       6.07839257      -0.00177920       0.00341802       0.00464624
S        2.07852304       6.04463778      10.20346159      -0.00409860      -0.00305704      -0.00995403
S        0.64049260      10.18246805       7.49662632      -0.00276908       0.01302109      -0.00226103
Fe       5.40939200      -0.01000801       0.00952797       0.00723586      -0.00362474       0.00363348
Fe       8.11922019      -0.01094580       2.71183856       0.00474703       0.00330464       0.00392967
Fe       5.41148632       2.70267089       2.70943945      -0.00036664      -0.00182420       0.00595493
Fe       8.11839871       2.69924627       0.00232567       0.00249783      -0.00381706       0.00502496
S        7.48191656       2.05985523       2.07217684       0.00192087      -0.00040032       0.00182420
S        6.05807628       3.33207192       4.77589407       0.00065203       0.00152646       0.00671161
S        8.75273741       4.77039746       0.63364626       0.00669515      -0.00051448      -0.00426135
S       10.19175056       0.62902949       3.35571637      -0.00203863      -0.00103898      -0.00205534
S        8.75906122       3.33592542       3.34730574       0.00267343       0.00091814       0.00112923
S       10.19019092       2.06196640       0.64599653       0.00455214       0.00251762      -0.00197512
S        7.48616754       0.62562734       4.78128775      -0.00214404      -0.00168844       0.00390242
S        6.04735611       4.76805515       2.06006439       0.01331883      -0.00831778       0.02494664
Fe       5.41444412      -0.01619186       5.42966677       0.00138505       0.00277191      -0.00331492
Fe       8.11961714      -0.01212497       8.12914641      -0.00449994      -0.00386463       0.00363554
Fe       5.41481621       2.71728991       8.12970335       0.00431997       0.00887699       0.00295137
Fe       8.12649645       2.69341900       5.41424425      -0.00234639       0.00532295       0.00865742
S        7.48828458       2.05753891       7.48524654      -0.00037821       0.00334398       0.00562043
S        6.05180904       3.33452127      10.21238642       0.00785318      -0.00708287       0.00854480
S        8.76508187       4.76606573       6.05111552       0.00332495      -0.00097008      -0.00064946
S       10.19343033       0.63171697       8.77104683      -0.00340286      -0.00212964      -0.00214636
S        8.75439949       3.33812302       8.76515663       0.01172294      -0.00079113       0.00195635
S       10.19518086       2.06016346       6.06227784       0.00367282       0.00001980       0.00147710
S        7.48087345       0.62920598      10.19830224       0.00369082      -0.00559883       0.00676303
S        6.08477032       4.73350878       7.45521078       0.00630743       0.00468661       0.00127424
Fe       5.39851272       5.36765509       0.04931360       0.02619440      -0.01207596       0.02746992
Fe       8.11145228       5.40766561       2.70219696       0.00125136      -0.00156837       0.00809975
Fe       5.41078698       8.11452599       2.70913008       0.00233662      -0.00223095       0.00093897
Fe       8.11624718       8.11710976       0.00127083       0.00485476      -0.00056667       0.00641927
S        7.47803835       7.47880902       2.06910884       0.00176815       0.00048825       0.00025891
S        6.05049035       8.74295964       4.77852852       0.00196895       0.00007688      -0.00350724
S        8.75899098      10.18468276       0.64345792       0.00280687      -0.00488638      -0.00060190
S       10.18978792       6.04496009       3.35692141       0.00236156       0.00334989       0.00448940
S        8.75919546       8.75196491       3.34804146       0.00199826       0.00052091       0.00255619
S       10.18854339       7.47611348       0.64559168       0.00570219      -0.00245386       0.00107909
S        7.48619980       6.04359466       4.78178301      -0.00158714      -0.00058647       0.00173601
S        6.05046976      10.18240195       2.07507993       0.00245438       0.00252919       0.00481156
Fe       5.42209387       5.40705305       5.43859260      -0.00294468       0.00189542       0.01142341
Fe       8.08682528       5.41148095       8.12701175      -0.00468841       0.00263281       0.00181726
Fe       5.45265498       8.18720738       8.10912061       0.00893330       0.00208568      -0.00456062
Fe       8.12542773       8.11250035       5.41692334       0.00265389      -0.00074948      -0.00114645
S        7.48355914       7.49867258       7.47715212       0.00969152       0.00040932       0.00141411
S        6.05992878       8.76448079      10.19130928       0.00649769      -0.00032730       0.00175066
S        8.76379441      10.18236545       6.05782012      -0.00089243       0.00013087       0.00573716
S       10.19483829       6.04879372       8.77619992      -0.01163193      -0.00125110      -0.00039158
S        8.77173740       8.75011389       8.76825998       0.00141514      -0.00675712       0.00003214
S       10.19884876       7.47591017       6.06538347      -0.00103590      -0.00096931       0.00535432
S        7.44118154       6.05563260      10.19002335       0.01440203      -0.00459996       0.00749914
S        6.06137696      10.18287129       7.48846672      -0.00265184       0.00776807      -0.00072891
H        4.17270683       5.80730367      -1.97531279      -0.03735684       0.05319792      -0.14735738
96
Lattice="10.832 0.0 0.0 0.0 10.832 0.0 0.0 0.0 10.832" Properties=species:S:1:pos:R:3:forces:R:3 spacegroup="P a -3" unit_cell=conventional mineral=pyrite rc=0.875 image_index=7 U_eV=0.0 nspin=1 source_file=results/dft_datasets/2026-05-01/pyr_prod_neb_W3/prod_essentials/neb.traj method=PBE_U0_ONCV vacancy_type=V_S2_dimer reaction=S2_dimer_hop energy=-128055.53129454989 pbc="T T T"
Fe      -0.00223417      -0.01165576       0.00833941       0.00487944      -0.00071939      -0.00252225
Fe       2.70678609      -0.01087086       2.71893009      -0.00072145      -0.00113926      -0.00039852
Fe      -0.00193403       2.69778524       2.71630618      -0.00118374      -0.00168227       0.00304779
Fe       2.70427292       2.69597234       0.01581878       0.00004191       0.00310435       0.00234279
S        2.06641510       2.05841442       2.08202920      -0.00191701      -0.00175735      -0.00105621
S        0.63788748       3.33689634       4.78963511      -0.00114106      -0.00024323      -0.00056924
S        3.33616011       4.75414953       0.66795457       0.00518309      -0.00388262      -0.00479408
S        4.77503051       0.62835728       3.35493582      -0.00393867      -0.00043272       0.00099862
S        3.34263178       3.33742475       3.36297967      -0.00134083      -0.00151207       0.00157943
S        4.76982038       2.04816493       0.64394352       0.00175838      -0.00246080       0.00168973
S        2.07008675       0.62904455       4.79078319      -0.00575490       0.00236259       0.00033939
S        0.63195373       4.76779383       2.07933478       0.00120071      -0.00265209       0.00284570
Fe      -0.00001258      -0.01227752       5.42535603      -0.00108989       0.00116522      -0.00312878
Fe       2.70627438      -0.00559871       8.13728093      -0.00024194      -0.00303467      -0.00208979
Fe      -0.00619412       2.70199167       8.13304646      -0.00566183      -0.00832395      -0.00111175
Fe       2.71032645       2.69865609       5.43165402       0.00042372      -0.00522217      -0.00482802
S        2.07436425       2.06638132       7.50464726      -0.00098807      -0.00421172      -0.00038927
S        0.63459014       3.33670370      10.20354652       0.00184759       0.00253228       0.00285521
S        3.34751726       4.77368602       6.08965578      -0.01519445      -0.00149638      -0.00141951
S        4.76354031       0.63279032       8.77834860       0.00103076       0.00676380       0.00573330
S        3.34626869       3.37459485       8.78456651      -0.00951128       0.00549445      -0.00235719
S        4.77467171       2.06143095       6.06307965       0.00105569       0.00119042       0.00311541
S        2.06736404       0.62740199      10.20377565       0.00200752       0.00306655       0.00019797
S        0.63089068       4.76545613       7.49653050      -0.02166232      -0.00840237      -0.00390293
Fe      -0.00559214       5.40524774       0.00970133       0.00491184      -0.00051139       0.00765057
Fe       2.70151174       5.40500018       2.72478317       0.00490875      -0.00122127      -0.00534147
Fe      -0.00275113       8.11265429       2.71400126      -0.00039929      -0.00165836       0.00181288
Fe       2.71011083       8.10687536       0.00461962       0.00380729      -0.00846381      -0.00615214
S        2.06743814       7.47389375       2.07711353       0.00105158      -0.00226386       0.00183705
S        0.63870706       8.75048333       4.78587041      -0.00210830      -0.00001954       0.00085772
S        3.34232594      10.17897386       0.64627077      -0.00300973      -0.00030905       0.00152518
S        4.76574960       6.05339228       3.35301958       0.00164088      -0.00335966       0.00511907
S        3.34237434       8.75031617       3.35351323      -0.00122719       0.00075308      -0.00061501
S        4.76645712       7.45456822       0.61020897       0.00281279      -0.00114260       0.00154318
S        2.07257856       6.04153831       4.79528524      -0.00189773      -0.00280636      -0.00336223
S        0.63665694      10.18273492       2.07813411      -0.00235153      -0.00228185      -0.00292617
Fe      -0.00549076       5.40503394       5.42813243      -0.00758270      -0.00008228      -0.00862168
Fe       2.68389002       5.40515454       8.14110600       0.00451511       0.00748011      -0.01096755
Fe       0.00279169       8.11529396       8.13379395       0.00229111       0.00665890      -0.00083355
Fe       2.70653644       8.11353596       5.42601733       0.00062375       0.00169693      -0.00076053
S        2.08353415       7.46724139       7.50169282      -0.01853585      -0.00249911      -0.00764158
S        0.63866908       8.74941507      10.20264590       0.00274954       0.00029825       0.00005091
S        3.34053774      10.18201758       6.06577940      -0.00330567       0.00382066       0.00007199
S        3.35313550       8.74269798       8.76921449      -0.00076927      -0.00670158       0.00007945
S        4.76599326       7.47739753       6.07553341      -0.00143005       0.00226900       0.00277962
S        2.08607032       6.04256038      10.19355098      -0.00682988      -0.00147633      -0.00561786
S        0.63965750      10.18122348       7.49532050      -0.00189130       0.00858363      -0.00089526
Fe       5.41070988      -0.01313119       0.00977658       0.00496506      -0.00231374       0.00164473
Fe       8.12039060      -0.01321726       2.71181450       0.00449403       0.00283593       0.00296937
Fe       5.41281850       2.70018793       2.71084697      -0.00052091      -0.00119376       0.00446292
Fe       8.12146950       2.69509489       0.00283163      -0.00037847      -0.00203271       0.00436599
S        7.48396429       2.05688426       2.07285631       0.00167919      -0.00016918       0.00259167
S        6.05746793       3.33083804       4.77802826      -0.00085181      -0.00004525       0.00446858
S        8.75929906       4.76636283       0.63436959       0.00288118      -0.00114234      -0.00158071
S       10.19271215       0.62697475       3.35464380      -0.00138660      -0.00099322      -0.00095542
S        8.76057872       3.33343754       3.34772248       0.00214944       0.00076825       0.00300176
S       10.19346174       2.05919613       0.64513419       0.00309998       0.00202706      -0.00239730
S        7.48615813       0.62398985       4.78153505      -0.00165373      -0.00175761       0.00278913
S        6.05230601       4.76245620       2.06762593       0.00706256      -0.00339129       0.01377906
Fe       5.41406405      -0.01717203       5.42986798       0.00142362       0.00213093      -0.00208336
Fe       8.11909897      -0.01415374       8.12927655      -0.00433231      -0.00261661       0.00313880
Fe       5.41435262       2.71981094       8.13194486       0.00193578       0.00760789      -0.00009744
Fe       8.12571401       2.69226525       5.41485785      -0.00313623       0.00220215       0.00670081
S        7.48740024       2.05680541       7.48636170       0.00029799       0.00116985       0.00499283
S        6.05735744       3.32966807      10.21820736       0.00381115      -0.00318020       0.00450020
S        8.76316047       4.76501008       6.05037028       0.00112100      -0.00241632       0.00010490
S       10.19390800       0.62901420       8.77036944      -0.00302927      -0.00133080      -0.00148610
S        8.75447443       3.33527569       8.76509181       0.00724691      -0.00125007       0.00306990
S       10.19420414       2.05792636       6.06169212       0.00179257      -0.00090220       0.00078470
S        7.48260312       0.62546609      10.19870545       0.00195867      -0.00278013       0.00508230
S        6.08362022       4.73385903       7.45604494       0.00369956       0.00199132       0.00063352
Fe       5.41278990       5.35848409       0.06591776       0.01034663      -0.00411017       0.00870396
Fe       8.11321122       5.40503171       2.70291816      -0.00045251      -0.00173627       0.00612154
Fe       5.41235159       8.11284053       2.70897588       0.00162802      -0.00215613       0.00146784
Fe       8.11905120       8.11425479       0.00118078       0.00283953      -0.00027614       0.00465910
S        7.47994307       7.47691249       2.06942977       0.00292514      -0.00026457       0.00092843
S        6.05003705       8.74153914       4.77803121       0.00057696       0.00037204      -0.00165759
S        8.76115078      10.18181405       0.64319809       0.00146270      -0.00332778      -0.00104670
S       10.19130413       6.04337875       3.35558871       0.00057233       0.00149510       0.00184579
S        8.76033779       8.74976341       3.34763465       0.00163522       0.00019977       0.00192319
S       10.19197069       7.47362901       0.64434147       0.00462310      -0.00242892      -0.00064149
S        7.48526575       6.04232157       4.78219800      -0.00237827      -0.00089449       0.00138428
S        6.05187482      10.18017215       2.07512129       0.00097805       0.00098859       0.00239395
Fe       5.42020453       5.40680750       5.43904119      -0.00276085       0.00049031       0.01072407
Fe       8.08328614       5.41084321       8.12895236      -0.00397853      -0.00001646       0.00087957
Fe       5.45080741       8.18636324       8.10595949       0.00366768      -0.00273257      -0.00077159
Fe       8.12507421       8.11086557       5.41640877       0.00004037       0.00017535       0.00073662
S        7.48235661       7.49722216       7.47695507       0.00593591       0.00085361       0.00259399
S        6.06165692       8.76064210      10.18969980       0.00318791      -0.00080681       0.00227568
S        8.76335801      10.18079723       6.05753362       0.00013447      -0.00023551       0.00488073
S       10.19251983       6.04624928       8.77442341      -0.00921149      -0.00025300       0.00086852
S        8.77170731       8.74793543       8.76759480       0.00087520      -0.00431920       0.00081864
S       10.19740961       7.47432982       6.06380971      -0.00256159      -0.00194170       0.00222066
S        7.44867541       6.05201233      10.19618138       0.00838308      -0.00229368       0.00361549
S        6.06105741      10.18280727       7.48854325      -0.00306090       0.00394022      -0.00015015
H        4.13839949       5.88228420      -2.12680868       0.01320750       0.05079060      -0.08102575
96
Lattice="10.832 0.0 0.0 0.0 10.832 0.0 0.0 0.0 10.832" Properties=species:S:1:pos:R:3:forces:R:3 spacegroup="P a -3" unit_cell=conventional mineral=pyrite rc=1.0 image_index=8 U_eV=0.0 nspin=1 source_file=results/dft_datasets/2026-05-01/pyr_prod_neb_W3/prod_essentials/neb.traj method=PBE_U0_ONCV vacancy_type=V_S2_dimer reaction=S2_dimer_hop energy=-128055.54020097188 pbc="T T T"
Fe      -0.00051324      -0.01542627       0.00070440       0.00007225      -0.00315372       0.02361173
Fe       2.70789546      -0.01428291       2.71253842      -0.01238937      -0.00439376      -0.00241324
Fe       0.00155068       2.69472857       2.70959768      -0.00870678      -0.01364176       0.00308250
Fe       2.70761294       2.69478522       0.00902950       0.00268835      -0.00876309      -0.00630666
S        2.06920986       2.05524763       2.07506333       0.00288221      -0.00091043       0.00026354
S        0.63906221       3.33363992       4.78129104      -0.00876103      -0.00971928       0.00868030
S        3.34205716       4.75025960       0.65983445       0.00283078      -0.00249706       0.00466707
S        4.77541407       0.62264850       3.35008661      -0.00201703       0.00292463      -0.00180903
S        3.34625540       3.33368863       3.35678229      -0.02140521      -0.00267729      -0.00888522
S        4.77324179       2.04269702       0.63933749      -0.01075441      -0.00639639       0.00494912
S        2.06982689       0.62619457       4.78453913      -0.00651132      -0.00423384      -0.00369827
S        0.63612837       4.76385957       2.07036137       0.00152004       0.00030956       0.01302392
Fe      -0.00084977      -0.01644038       5.41954616      -0.00463441       0.00217798      -0.01008747
Fe       2.70557904      -0.00906098       8.13097655      -0.00226900       0.01624500      -0.00167842
Fe      -0.00634331       2.69653747       8.12584075      -0.01001599       0.01195023      -0.00032859
Fe       2.70981246       2.69571818       5.42468944       0.00353192       0.00111303      -0.00029696
S        2.07405441       2.06447379       7.49740912       0.00831366      -0.00631591       0.00794368
S        0.63886211       3.33432192      10.19569795      -0.01017900      -0.00818305       0.00193938
S        3.34196124       4.77203203       6.08086968      -0.00087726      -0.00105775      -0.00524222
S        4.76239509       0.62969892       8.77424450       0.00356921      -0.00232608       0.00213376
S        3.34925258       3.38123732       8.77718336       0.00692989       0.00516689      -0.00591791
S        4.77411575       2.05892649       6.05924890      -0.00168844      -0.01389424       0.00082095
S        2.06920650       0.62537160      10.19738641      -0.00914439      -0.00750865      -0.00822085
S        0.62435591       4.76018002       7.48773741       0.01105163      -0.00135369       0.00261558
Fe      -0.00157436       5.39991667       0.00331323      -0.00052476       0.00815888      -0.00739681
Fe       2.70408342       5.40209977       2.71570138      -0.00057078      -0.00936936       0.01012963
Fe      -0.00285980       8.10859416       2.70824125       0.00802570       0.00517152      -0.00413279
Fe       2.71086168       8.10247831      -0.00331253       0.00039929      -0.00187073      -0.00202526
S        2.06874650       7.47158356       2.07051113      -0.00085438      -0.01926836      -0.01281978
S        0.63540865       8.74662918       4.77969824       0.01069965       0.00218261      -0.00559369
S        3.34177406      10.17482996       0.63996974       0.01407293      -0.00114208       0.00115314
S        4.76775571       6.04830816       3.34887490      -0.00989592       0.00540832       0.00110275
S        3.34237109       8.74664231       3.34703410      -0.00053068       0.00068494      -0.00332315
S        4.76876353       7.44854641       0.60555458       0.00415850      -0.00002263       0.00228237
S        2.07065470       6.03735559       4.78504177      -0.00164036       0.00844967      -0.00644421
S        0.63696306      10.17956189       2.07194994       0.00245489      -0.00562866      -0.00317865
Fe      -0.00838212       5.39982115       5.41887762      -0.00269195       0.00874329       0.01749481
Fe       2.67664190       5.40945900       8.12234221       0.00326119      -0.00488227       0.00993551
Fe      -0.00088012       8.11213020       8.12658781       0.00331492      -0.01468743      -0.00387080
Fe       2.70286640       8.11164826       5.41780651       0.00654474      -0.02044284       0.00051268
S        2.07237132       7.46547458       7.48924322       0.01311057       0.00795936       0.00425800
S        0.63846391       8.74523830      10.19645173       0.01094262       0.00326813      -0.01306018
S        3.33854493      10.17865027       6.05917437      -0.00287321       0.00341083       0.00385511
S        3.34914475       8.73932003       8.76071337       0.00013935       0.00098679       0.00067774
S        4.76254401       7.47367596       6.06779399       0.00567571       0.01205693       0.00331621
S        2.09210867       6.04101723      10.18031745       0.00801130      -0.00004499      -0.00159820
S        0.63812795      10.17803796       7.48860296      -0.00370676       0.00466038       0.00678206
Fe       5.41115377      -0.01980185       0.00523406       0.00613954       0.01569530       0.00156169
Fe       8.12155935      -0.01804780       2.70790339       0.00861140       0.00227440      -0.00781178
Fe       5.41522902       2.69397529       2.70711250       0.00784161       0.01083514       0.01244311
Fe       8.12527654       2.68824762      -0.00085669      -0.00124210       0.00290329      -0.00390808
S        7.48875770       2.05119911       2.06996433      -0.01732332      -0.00025711      -0.00478174
S        6.05751975       3.32492108       4.77560125       0.00314009       0.00633468      -0.00205431
S        8.76523018       4.75885058       0.63086871      -0.00000309       0.01077164      -0.00642570
S       10.19363006       0.62379823       3.34827729      -0.00015247      -0.00986712       0.00214250
S        8.76454500       3.32898294       3.34446446      -0.01339673      -0.00496146      -0.00427369
S       10.19824772       2.05563057       0.63727303      -0.00680982      -0.00906751       0.01130720
S        7.48604654       0.61799233       4.77729869      -0.00284184       0.00268706       0.00692707
S        6.05747631       4.75431200       2.06868716       0.00048774       0.00141359       0.00050779
Fe       5.41204741      -0.02221120       5.42483740       0.01761694       0.01694820       0.00999979
Fe       8.11793859      -0.02033344       8.12591826      -0.00826533       0.01019520      -0.01012783
Fe       5.41512326       2.71887351       8.12905059      -0.00513115      -0.01248913      -0.00661133
Fe       8.12652976       2.68681904       5.41144355      -0.01047185       0.00155063      -0.00361831
S        7.48725682       2.05088687       7.48277744       0.00195661       0.00814680       0.00471103
S        6.06338163       3.32277924      10.21825749      -0.00505659       0.00444955      -0.00607860
S        8.76186075       4.75885254       6.04524883       0.00320025       0.00436573       0.00161722
S       10.19337815       0.62412031       8.76404831       0.00566620      -0.00196124       0.00256005
S        8.75482782       3.32850971       8.76031925       0.00942232       0.00313495       0.00173935
S       10.19454186       2.05265457       6.05518757       0.00005811       0.00387517       0.00762615
S        7.48303343       0.61830529      10.19507453       0.00448683       0.00263538       0.00153881
S        6.08269317       4.73002225       7.45098840       0.01097038      -0.00153521       0.01000391
Fe       5.42438558       5.34902482       0.07163656      -0.01989417       0.00548905      -0.01136170
Fe       8.11598334       5.39918927       2.69946537      -0.00857232      -0.00058467       0.00038207
Fe       5.41366596       8.10737210       2.70338399      -0.00236079       0.00506996       0.01495816
Fe       8.12113172       8.10836815      -0.00244085      -0.00520031      -0.00286601      -0.00975374
S        7.48169902       7.47197150       2.06502555       0.00005862      -0.00338897       0.00780047
S        6.04794066       8.73710421       4.77407493       0.00177535      -0.00810206      -0.00977868
S        8.76228946      10.17685149       0.63756526       0.00623827      -0.00467272       0.00919504
S       10.19291720       6.03919458       3.34812760      -0.00222040       0.00104104       0.00767500
S        8.76043310       8.74538386       3.34333545      -0.00262921      -0.00909142       0.00067877
S       10.19438354       7.46871224       0.63852102      -0.00188719       0.00108603       0.00183217
S        7.48422151       6.03636518       4.77883530       0.00097856       0.01180471      -0.00605058
S        6.05308736      10.17435916       2.07015307      -0.00375792       0.00242249       0.00194375
Fe       5.41866786       5.40262306       5.43535560      -0.00653009      -0.00191984      -0.01275936
Fe       8.08144979       5.40499007       8.12529512       0.00146527       0.00872478       0.00703608
Fe       5.44508630       8.17921075       8.09938801      -0.00539006      -0.01440383       0.01248811
Fe       8.12301725       8.10569835       5.41247090       0.00159254      -0.00445109       0.00224792
S        7.47976407       7.49123813       7.47441112      -0.00619764      -0.00235076      -0.01140104
S        6.06076557       8.75190793      10.18485565       0.00141925       0.01042762      -0.00558289
S        8.76202951      10.17516408       6.05406664      -0.00103770       0.00455522      -0.00510287
S       10.18971327       6.04107666       8.76785046       0.00536384       0.00297091       0.00309664
S        8.76993207       8.74301607       8.76364102      -0.00428809      -0.00641207      -0.00183422
S       10.19220239       7.46876288       6.05735952       0.01724413       0.00871501      -0.00201806
S        7.45459317       6.04536989      10.19616610       0.00449249      -0.00262047      -0.00051988
S        6.05778569      10.17796866       7.48536955       0.00734847      -0.00300176      -0.00963727
H        4.12568581       5.98045127      -2.26337857       0.01152600      -0.00316143      -0.01943034
