96
Lattice="10.832 0.0 0.0 0.0 10.832 0.0 0.0 0.0 10.832" Properties=species:S:1:pos:R:3:spacegroup_kinds:I:1:forces:R:3 spacegroup="P a -3" unit_cell=conventional nspins=1 nkpts=8 fermi_level=13.0028 natoms=96 mineral=pyrite rc=1.0 image_index=8 U_eV=0.0 nspin=1 source_file=results/dft_datasets/2026-05-01/pyr_prod_neb_W3/prod_essentials/relaxed_endB.xyz method=PBE_U0_ONCV geometry=dft_relaxed vacancy_type=V_S2_dimer energy=-128055.54020097188 pbc="T T T"
Fe      -0.00051324      -0.01542627       0.00070440        0       0.00007225      -0.00315372       0.02361173
Fe       2.70789546      -0.01428291       2.71253842        0      -0.01238937      -0.00439376      -0.00241324
Fe       0.00155068       2.69472857       2.70959768        0      -0.00870678      -0.01364176       0.00308250
Fe       2.70761294       2.69478522       0.00902950        0       0.00268835      -0.00876309      -0.00630666
S        2.06920986       2.05524763       2.07506333        1       0.00288221      -0.00091043       0.00026354
S        0.63906221       3.33363992       4.78129104        1      -0.00876103      -0.00971928       0.00868030
S        3.34205716       4.75025960       0.65983445        1       0.00283078      -0.00249706       0.00466707
S        4.77541407       0.62264850       3.35008661        1      -0.00201703       0.00292463      -0.00180903
S        3.34625540       3.33368863       3.35678229        1      -0.02140521      -0.00267729      -0.00888522
S        4.77324179       2.04269702       0.63933749        1      -0.01075441      -0.00639639       0.00494912
S        2.06982689       0.62619457       4.78453913        1      -0.00651132      -0.00423384      -0.00369827
S        0.63612837       4.76385957       2.07036137        1       0.00152004       0.00030956       0.01302392
Fe      -0.00084977      -0.01644038       5.41954616        0      -0.00463441       0.00217798      -0.01008747
Fe       2.70557904      -0.00906098       8.13097655        0      -0.00226900       0.01624500      -0.00167842
Fe      -0.00634331       2.69653747       8.12584075        0      -0.01001599       0.01195023      -0.00032859
Fe       2.70981246       2.69571818       5.42468944        0       0.00353192       0.00111303      -0.00029696
S        2.07405441       2.06447379       7.49740912        1       0.00831366      -0.00631591       0.00794368
S        0.63886211       3.33432192      10.19569795        1      -0.01017900      -0.00818305       0.00193938
S        3.34196124       4.77203203       6.08086968        1      -0.00087726      -0.00105775      -0.00524222
S        4.76239509       0.62969892       8.77424450        1       0.00356921      -0.00232608       0.00213376
S        3.34925258       3.38123732       8.77718336        1       0.00692989       0.00516689      -0.00591791
S        4.77411575       2.05892649       6.05924890        1      -0.00168844      -0.01389424       0.00082095
S        2.06920650       0.62537160      10.19738641        1      -0.00914439      -0.00750865      -0.00822085
S        0.62435591       4.76018002       7.48773741        1       0.01105163      -0.00135369       0.00261558
Fe      -0.00157436       5.39991667       0.00331323        0      -0.00052476       0.00815888      -0.00739681
Fe       2.70408342       5.40209977       2.71570138        0      -0.00057078      -0.00936936       0.01012963
Fe      -0.00285980       8.10859416       2.70824125        0       0.00802570       0.00517152      -0.00413279
Fe       2.71086168       8.10247831      -0.00331253        0       0.00039929      -0.00187073      -0.00202526
S        2.06874650       7.47158356       2.07051113        1      -0.00085438      -0.01926836      -0.01281978
S        0.63540865       8.74662918       4.77969824        1       0.01069965       0.00218261      -0.00559369
S        3.34177406      10.17482996       0.63996974        1       0.01407293      -0.00114208       0.00115314
S        4.76775571       6.04830816       3.34887490        1      -0.00989592       0.00540832       0.00110275
S        3.34237109       8.74664231       3.34703410        1      -0.00053068       0.00068494      -0.00332315
S        4.76876353       7.44854641       0.60555458        1       0.00415850      -0.00002263       0.00228237
S        2.07065470       6.03735559       4.78504177        1      -0.00164036       0.00844967      -0.00644421
S        0.63696306      10.17956189       2.07194994        1       0.00245489      -0.00562866      -0.00317865
Fe      -0.00838212       5.39982115       5.41887762        0      -0.00269195       0.00874329       0.01749481
Fe       2.67664190       5.40945900       8.12234221        0       0.00326119      -0.00488227       0.00993551
Fe      -0.00088012       8.11213020       8.12658781        0       0.00331492      -0.01468743      -0.00387080
Fe       2.70286640       8.11164826       5.41780651        0       0.00654474      -0.02044284       0.00051268
S        2.07237132       7.46547458       7.48924322        1       0.01311057       0.00795936       0.00425800
S        0.63846391       8.74523830      10.19645173        1       0.01094262       0.00326813      -0.01306018
S        3.33854493      10.17865027       6.05917437        1      -0.00287321       0.00341083       0.00385511
S        3.34914475       8.73932003       8.76071337        1       0.00013935       0.00098679       0.00067774
S        4.76254401       7.47367596       6.06779399        1       0.00567571       0.01205693       0.00331621
S        2.09210867       6.04101723      10.18031745        1       0.00801130      -0.00004499      -0.00159820
S        0.63812795      10.17803796       7.48860296        1      -0.00370676       0.00466038       0.00678206
Fe       5.41115377      -0.01980185       0.00523406        0       0.00613954       0.01569530       0.00156169
Fe       8.12155935      -0.01804780       2.70790339        0       0.00861140       0.00227440      -0.00781178
Fe       5.41522902       2.69397529       2.70711250        0       0.00784161       0.01083514       0.01244311
Fe       8.12527654       2.68824762      -0.00085669        0      -0.00124210       0.00290329      -0.00390808
S        7.48875770       2.05119911       2.06996433        1      -0.01732332      -0.00025711      -0.00478174
S        6.05751975       3.32492108       4.77560125        1       0.00314009       0.00633468      -0.00205431
S        8.76523018       4.75885058       0.63086871        1      -0.00000309       0.01077164      -0.00642570
S       10.19363006       0.62379823       3.34827729        1      -0.00015247      -0.00986712       0.00214250
S        8.76454500       3.32898294       3.34446446        1      -0.01339673      -0.00496146      -0.00427369
S       10.19824772       2.05563057       0.63727303        1      -0.00680982      -0.00906751       0.01130720
S        7.48604654       0.61799233       4.77729869        1      -0.00284184       0.00268706       0.00692707
S        6.05747631       4.75431200       2.06868716        1       0.00048774       0.00141359       0.00050779
Fe       5.41204741      -0.02221120       5.42483740        0       0.01761694       0.01694820       0.00999979
Fe       8.11793859      -0.02033344       8.12591826        0      -0.00826533       0.01019520      -0.01012783
Fe       5.41512326       2.71887351       8.12905059        0      -0.00513115      -0.01248913      -0.00661133
Fe       8.12652976       2.68681904       5.41144355        0      -0.01047185       0.00155063      -0.00361831
S        7.48725682       2.05088687       7.48277744        1       0.00195661       0.00814680       0.00471103
S        6.06338163       3.32277924      10.21825749        1      -0.00505659       0.00444955      -0.00607860
S        8.76186075       4.75885254       6.04524883        1       0.00320025       0.00436573       0.00161722
S       10.19337815       0.62412031       8.76404831        1       0.00566620      -0.00196124       0.00256005
S        8.75482782       3.32850971       8.76031925        1       0.00942232       0.00313495       0.00173935
S       10.19454186       2.05265457       6.05518757        1       0.00005811       0.00387517       0.00762615
S        7.48303343       0.61830529      10.19507453        1       0.00448683       0.00263538       0.00153881
S        6.08269317       4.73002225       7.45098840        1       0.01097038      -0.00153521       0.01000391
Fe       5.42438558       5.34902482       0.07163656        0      -0.01989417       0.00548905      -0.01136170
Fe       8.11598334       5.39918927       2.69946537        0      -0.00857232      -0.00058467       0.00038207
Fe       5.41366596       8.10737210       2.70338399        0      -0.00236079       0.00506996       0.01495816
Fe       8.12113172       8.10836815      -0.00244085        0      -0.00520031      -0.00286601      -0.00975374
S        7.48169902       7.47197150       2.06502555        1       0.00005862      -0.00338897       0.00780047
S        6.04794066       8.73710421       4.77407493        1       0.00177535      -0.00810206      -0.00977868
S        8.76228946      10.17685149       0.63756526        1       0.00623827      -0.00467272       0.00919504
S       10.19291720       6.03919458       3.34812760        1      -0.00222040       0.00104104       0.00767500
S        8.76043310       8.74538386       3.34333545        1      -0.00262921      -0.00909142       0.00067877
S       10.19438354       7.46871224       0.63852102        1      -0.00188719       0.00108603       0.00183217
S        7.48422151       6.03636518       4.77883530        1       0.00097856       0.01180471      -0.00605058
S        6.05308736      10.17435916       2.07015307        1      -0.00375792       0.00242249       0.00194375
Fe       5.41866786       5.40262306       5.43535560        0      -0.00653009      -0.00191984      -0.01275936
Fe       8.08144979       5.40499007       8.12529512        0       0.00146527       0.00872478       0.00703608
Fe       5.44508630       8.17921075       8.09938801        0      -0.00539006      -0.01440383       0.01248811
Fe       8.12301725       8.10569835       5.41247090        0       0.00159254      -0.00445109       0.00224792
S        7.47976407       7.49123813       7.47441112        1      -0.00619764      -0.00235076      -0.01140104
S        6.06076557       8.75190793      10.18485565        1       0.00141925       0.01042762      -0.00558289
S        8.76202951      10.17516408       6.05406664        1      -0.00103770       0.00455522      -0.00510287
S       10.18971327       6.04107666       8.76785046        1       0.00536384       0.00297091       0.00309664
S        8.76993207       8.74301607       8.76364102        1      -0.00428809      -0.00641207      -0.00183422
S       10.19220239       7.46876288       6.05735952        1       0.01724413       0.00871501      -0.00201806
S        7.45459317       6.04536989      10.19616610        1       0.00449249      -0.00262047      -0.00051988
S        6.05778569      10.17796866       7.48536955        1       0.00734847      -0.00300176      -0.00963727
H        4.12568581       5.98045127       8.56862143        0       0.01152600      -0.00316143      -0.01943034
