
     Program PWSCF v.7.5 starts on 20Sep2026 at 15: 0:28 

     This program is part of the open-source Quantum ESPRESSO suite
     for quantum simulation of materials; please cite
         "P. Giannozzi et al., J. Phys.:Condens. Matter 21 395502 (2009);
         "P. Giannozzi et al., J. Phys.:Condens. Matter 29 465901 (2017);
         "P. Giannozzi et al., J. Chem. Phys. 152 154105 (2020);
          URL http://www.quantum-espresso.org", 
     in publications or presentations arising from this work. More details at
     http://www.quantum-espresso.org/quote

     Parallel version (MPI & OpenMP), running on      10 processor cores
     Number of MPI processes:                 1
     Threads/MPI process:                    10

     MPI processes distributed on     1 nodes
     51284 MiB available memory on the printing compute node when the environment starts
 
     Reading input from espresso.pwi
Warning: card &CELL ignored
Warning: card &FCP ignored
Warning: card &RISM ignored

     Current dimensions of program PWSCF are:
     Max number of different atomic species (ntypx) = 10
     Max number of k-points (npk) =  40000
     Max angular momentum in pseudopotentials (lmaxx) =  4
     Message from routine setup:
     using ibrav=0 with symmetry is DISCOURAGED, use correct ibrav instead
 
     Subspace diagonalization in iterative solution of the eigenvalue problem:
     a serial algorithm will be used

 
     G-vector sticks info
     --------------------
     sticks:   dense  smooth     PW     G-vecs:    dense   smooth      PW
     Sum        8857    8857   2361               628003   628003   86407
 
     Using Slab Decomposition
 


     bravais-lattice index     =            0
     lattice parameter (alat)  =      18.6629  a.u.
     unit-cell volume          =    6500.3965 (a.u.)^3
     number of atoms/cell      =           56
     number of atomic types    =            4
     number of electrons       =       561.00
     number of Kohn-Sham states=          337
     kinetic-energy cutoff     =      80.0000  Ry
     charge density cutoff     =     320.0000  Ry
     scf convergence threshold =      1.0E-05
     mixing beta               =       0.0500
     number of iterations used =           12  plain     mixing
     Exchange-correlation= PBE
                           (   1   4   3   4   0   0   0)

     GPU acceleration is ACTIVE.  1 visible GPUs per MPI rank


     GPU used by master process:

        Device Number: 0
        Device name: NVIDIA A100 80GB PCIe
        Compute capability : 80
        Ratio of single to double precision performance  : 2
        Memory Clock Rate (KHz): 1512000
        Memory Bus Width (bits): 5120
        Peak Memory Bandwidth (GB/s): ******

     celldm(1)=  18.662935  celldm(2)=   0.000000  celldm(3)=   0.000000
     celldm(4)=   0.000000  celldm(5)=   0.000000  celldm(6)=   0.000000

     crystal axes: (cart. coord. in units of alat)
               a(1) = (   1.000000   0.000000   0.000000 )  
               a(2) = (   0.000000   1.000000   0.000000 )  
               a(3) = (   0.000000   0.000000   1.000000 )  

     reciprocal axes: (cart. coord. in units 2 pi/alat)
               b(1) = (  1.000000  0.000000  0.000000 )  
               b(2) = (  0.000000  1.000000  0.000000 )  
               b(3) = (  0.000000  0.000000  1.000000 )  


     PseudoPot. # 1 for Fe read from file:
     /opt/pp/oncv_pbe/Fe.upf
     MD5 check sum: a5f07f5dca5be6cacb81ceb54992e4ae
     Pseudo is Norm-conserving + core correction, Zval = 16.0
     Generated using ONCVPSP code by D. R. Hamann
     Using radial grid of 1426 points,  6 beta functions with: 
                l(1) =   0
                l(2) =   0
                l(3) =   1
                l(4) =   1
                l(5) =   2
                l(6) =   2

     PseudoPot. # 2 for Fe read from file:
     /opt/pp/oncv_pbe/Fe.upf
     MD5 check sum: a5f07f5dca5be6cacb81ceb54992e4ae
     Pseudo is Norm-conserving + core correction, Zval = 16.0
     Generated using ONCVPSP code by D. R. Hamann
     Using radial grid of 1426 points,  6 beta functions with: 
                l(1) =   0
                l(2) =   0
                l(3) =   1
                l(4) =   1
                l(5) =   2
                l(6) =   2

     PseudoPot. # 3 for S  read from file:
     /opt/pp/oncv_pbe/S.upf
     MD5 check sum: 6027e7704d67ae28863b2247926ce6f3
     Pseudo is Norm-conserving + core correction, Zval =  6.0
     Generated using ONCVPSP code by D. R. Hamann
     Using radial grid of 1146 points,  6 beta functions with: 
                l(1) =   0
                l(2) =   0
                l(3) =   1
                l(4) =   1
                l(5) =   2
                l(6) =   2

     PseudoPot. # 4 for H  read from file:
     /opt/pp/oncv_pbe/H.upf
     MD5 check sum: e96aa7e3e4a958db16958554ea960e2a
     Pseudo is Norm-conserving, Zval =  1.0
     Generated using ONCVPSP code by D. R. Hamann
     Using radial grid of 1166 points,  3 beta functions with: 
                l(1) =   0
                l(2) =   0
                l(3) =   1

     atomic species   valence    mass     pseudopotential
     Fe               16.00    55.84500     Fe( 1.00)
     Fe1              16.00    55.84500     Fe( 1.00)
     S                 6.00    32.06000     S ( 1.00)
     H                 1.00     1.00800     H ( 1.00)

     Starting magnetic structure 
     atomic species   magnetization
     Fe              0.313
     Fe1            -0.250
     S               0.000
     H               0.000

      2 Sym. Ops. (no inversion) found


                                    s                        frac. trans.

      isym =  1     identity                                     

 cryst.   s( 1) = (     1          0          0      )
                  (     0          1          0      )
                  (     0          0          1      )

 cart.    s( 1) = (  1.0000000  0.0000000  0.0000000 )
                  (  0.0000000  1.0000000  0.0000000 )
                  (  0.0000000  0.0000000  1.0000000 )


      isym =  2     180 deg rotation - cart. axis [0,1,-1]       

 cryst.   s( 2) = (    -1          0          0      )
                  (     0          0         -1      )
                  (     0         -1          0      )

 cart.    s( 2) = ( -1.0000000  0.0000000  0.0000000 )
                  (  0.0000000  0.0000000 -1.0000000 )
                  (  0.0000000 -1.0000000  0.0000000 )


   Cartesian axes

     site n.     atom                  positions (alat units)
         1        Fe     tau(   1) = (   0.1246186   0.1230403   0.1241098  )
         2        Fe     tau(   2) = (   0.6242828   0.1216857   0.6254188  )
         3        Fe     tau(   3) = (   0.1241905   0.6236744   0.6261857  )
         4        Fe     tau(   4) = (   0.6257492   0.6260887   0.1235763  )
         5        Fe     tau(   5) = (   0.8758098   0.3738143   0.3763254  )
         6        Fe     tau(   6) = (   0.8753813   0.8758902   0.8769598  )
         7        Fe     tau(   7) = (   0.3757170   0.3745811   0.8783142  )
         8        Fe     tau(   8) = (   0.3742512   0.8764233   0.3739115  )
         9        Fe1    tau(   9) = (   0.2488085   0.7468409   0.0016896  )
        10        Fe1    tau(  10) = (   0.7511916  -0.0016902   0.2531593  )
        11        Fe1    tau(  11) = (  -0.0000002   0.2507692   0.7492311  )
        12        Fe1    tau(  12) = (   0.5000000   0.0011688  -0.0011688  )
        13        Fe1    tau(  13) = (   0.2568007   0.2561372   0.4944082  )
        14        Fe1    tau(  14) = (   0.7431989   0.5055923   0.7438626  )
        15        Fe1    tau(  15) = (  -0.0000002   0.7486935   0.2513065  )
        16        Fe1    tau(  16) = (  -0.0000984   0.4985508  -0.0000442  )
        17        Fe1    tau(  17) = (   0.7506286   0.7408615   0.5020893  )
        18        Fe1    tau(  18) = (   0.2503876   0.0001022   0.7486401  )
        19        Fe1    tau(  19) = (   0.4965126   0.2519555   0.2635029  )
        20        Fe1    tau(  20) = (   0.0000984   0.0000441   0.5014490  )
        21        Fe1    tau(  21) = (   0.7496126   0.2513602  -0.0001028  )
        22        Fe1    tau(  22) = (   0.2493716   0.4979111   0.2591388  )
        23        Fe1    tau(  23) = (   0.5034880   0.7364974   0.7480449  )
        24        S      tau(  24) = (   0.2530182   0.2525974   0.2517317  )
        25        S      tau(  25) = (   0.4950313   0.9903182   0.7544134  )
        26        S      tau(  26) = (   0.9967775   0.7557886   0.4968108  )
        27        S      tau(  27) = (   0.7553321   0.4965018   0.9948297  )
        28        S      tau(  28) = (   0.0032225   0.5031892   0.2442114  )
        29        S      tau(  29) = (   0.7469819   0.7482685   0.7474029  )
        30        S      tau(  30) = (   0.5049687   0.2455864   0.0096815  )
        31        S      tau(  31) = (   0.2446678   0.0051701   0.5034983  )
        32        S      tau(  32) = (   0.2550870   0.7532730   0.7553484  )
        33        S      tau(  33) = (   0.4924797   0.5037515   0.2620014  )
        34        S      tau(  34) = (   0.9948869   0.2529626   0.9961378  )
        35        S      tau(  35) = (   0.7555698   0.9922006   0.4963626  )
        36        S      tau(  36) = (   0.0051132   0.0038623   0.7470377  )
        37        S      tau(  37) = (   0.7449132   0.2446514   0.2467269  )
        38        S      tau(  38) = (   0.5075202   0.7379983   0.4962486  )
        39        S      tau(  39) = (   0.2444301   0.5036375   0.0077991  )
        40        S      tau(  40) = (   0.7544294   0.2534431   0.7550026  )
        41        S      tau(  41) = (   0.9957464   0.9944905   0.2540452  )
        42        S      tau(  42) = (   0.4955018   0.7554148   0.9957937  )
        43        S      tau(  43) = (   0.2399591   0.4919948   0.4941387  )
        44        S      tau(  44) = (   0.5064919   0.5029422   0.7563244  )
        45        S      tau(  45) = (   0.2445308   0.7461546   0.2466934  )
        46        S      tau(  46) = (   0.0056882   0.2431010   0.5043253  )
        47        S      tau(  47) = (   0.7458866   0.0044450   0.0064927  )
        48        S      tau(  48) = (   0.7554688   0.7533063   0.2538451  )
        49        S      tau(  49) = (   0.9943117   0.4956748   0.7568988  )
        50        S      tau(  50) = (   0.4935081   0.2436755   0.4970578  )
        51        S      tau(  51) = (   0.2541135   0.9935075   0.9955551  )
        52        S      tau(  52) = (   0.5044981   0.0042063   0.2445851  )
        53        S      tau(  53) = (   0.2455703   0.2449972   0.7465570  )
        54        S      tau(  54) = (   0.0042538   0.7459549   0.0055097  )
        55        S      tau(  55) = (   0.7600409   0.5058613   0.5080053  )
        56        H      tau(  56) = (   0.4999999   0.6045961   0.3954038  )

   Crystallographic axes

     site n.     atom                  positions (cryst. coord.)
         1        Fe     tau(   1) = (  0.1246186  0.1230403  0.1241098  )
         2        Fe     tau(   2) = (  0.6242828  0.1216857  0.6254188  )
         3        Fe     tau(   3) = (  0.1241905  0.6236744  0.6261857  )
         4        Fe     tau(   4) = (  0.6257492  0.6260887  0.1235763  )
         5        Fe     tau(   5) = (  0.8758098  0.3738143  0.3763254  )
         6        Fe     tau(   6) = (  0.8753813  0.8758902  0.8769598  )
         7        Fe     tau(   7) = (  0.3757170  0.3745811  0.8783142  )
         8        Fe     tau(   8) = (  0.3742512  0.8764233  0.3739115  )
         9        Fe1    tau(   9) = (  0.2488085  0.7468409  0.0016896  )
        10        Fe1    tau(  10) = (  0.7511916 -0.0016902  0.2531593  )
        11        Fe1    tau(  11) = ( -0.0000002  0.2507692  0.7492311  )
        12        Fe1    tau(  12) = (  0.5000000  0.0011688 -0.0011688  )
        13        Fe1    tau(  13) = (  0.2568007  0.2561372  0.4944082  )
        14        Fe1    tau(  14) = (  0.7431989  0.5055923  0.7438626  )
        15        Fe1    tau(  15) = ( -0.0000002  0.7486935  0.2513065  )
        16        Fe1    tau(  16) = ( -0.0000984  0.4985508 -0.0000442  )
        17        Fe1    tau(  17) = (  0.7506286  0.7408615  0.5020893  )
        18        Fe1    tau(  18) = (  0.2503876  0.0001022  0.7486401  )
        19        Fe1    tau(  19) = (  0.4965126  0.2519555  0.2635029  )
        20        Fe1    tau(  20) = (  0.0000984  0.0000441  0.5014490  )
        21        Fe1    tau(  21) = (  0.7496126  0.2513602 -0.0001028  )
        22        Fe1    tau(  22) = (  0.2493716  0.4979111  0.2591388  )
        23        Fe1    tau(  23) = (  0.5034880  0.7364974  0.7480449  )
        24        S      tau(  24) = (  0.2530182  0.2525974  0.2517317  )
        25        S      tau(  25) = (  0.4950313  0.9903182  0.7544134  )
        26        S      tau(  26) = (  0.9967775  0.7557886  0.4968108  )
        27        S      tau(  27) = (  0.7553321  0.4965018  0.9948297  )
        28        S      tau(  28) = (  0.0032225  0.5031892  0.2442114  )
        29        S      tau(  29) = (  0.7469819  0.7482685  0.7474029  )
        30        S      tau(  30) = (  0.5049687  0.2455864  0.0096815  )
        31        S      tau(  31) = (  0.2446678  0.0051701  0.5034983  )
        32        S      tau(  32) = (  0.2550870  0.7532730  0.7553484  )
        33        S      tau(  33) = (  0.4924797  0.5037515  0.2620014  )
        34        S      tau(  34) = (  0.9948869  0.2529626  0.9961378  )
        35        S      tau(  35) = (  0.7555698  0.9922006  0.4963626  )
        36        S      tau(  36) = (  0.0051132  0.0038623  0.7470377  )
        37        S      tau(  37) = (  0.7449132  0.2446514  0.2467269  )
        38        S      tau(  38) = (  0.5075202  0.7379983  0.4962486  )
        39        S      tau(  39) = (  0.2444301  0.5036375  0.0077991  )
        40        S      tau(  40) = (  0.7544294  0.2534431  0.7550026  )
        41        S      tau(  41) = (  0.9957464  0.9944905  0.2540452  )
        42        S      tau(  42) = (  0.4955018  0.7554148  0.9957937  )
        43        S      tau(  43) = (  0.2399591  0.4919948  0.4941387  )
        44        S      tau(  44) = (  0.5064919  0.5029422  0.7563244  )
        45        S      tau(  45) = (  0.2445308  0.7461546  0.2466934  )
        46        S      tau(  46) = (  0.0056882  0.2431010  0.5043253  )
        47        S      tau(  47) = (  0.7458866  0.0044450  0.0064927  )
        48        S      tau(  48) = (  0.7554688  0.7533063  0.2538451  )
        49        S      tau(  49) = (  0.9943117  0.4956748  0.7568988  )
        50        S      tau(  50) = (  0.4935081  0.2436755  0.4970578  )
        51        S      tau(  51) = (  0.2541135  0.9935075  0.9955551  )
        52        S      tau(  52) = (  0.5044981  0.0042063  0.2445851  )
        53        S      tau(  53) = (  0.2455703  0.2449972  0.7465570  )
        54        S      tau(  54) = (  0.0042538  0.7459549  0.0055097  )
        55        S      tau(  55) = (  0.7600409  0.5058613  0.5080053  )
        56        H      tau(  56) = (  0.4999999  0.6045961  0.3954038  )

     number of k points=     6  Gaussian smearing, width (Ry)=  0.0050
                       cart. coord. in units 2pi/alat
        k(    1) = (   0.0000000   0.0000000   0.0000000), wk =   0.1250000
        k(    2) = (   0.0000000   0.0000000  -0.5000000), wk =   0.2500000
        k(    3) = (   0.0000000  -0.5000000  -0.5000000), wk =   0.1250000
        k(    4) = (  -0.5000000  -0.5000000  -0.5000000), wk =   0.1250000
        k(    5) = (  -0.5000000   0.0000000   0.0000000), wk =   0.1250000
        k(    6) = (  -0.5000000   0.0000000   0.5000000), wk =   0.2500000

                       cryst. coord.
        k(    1) = (   0.0000000   0.0000000   0.0000000), wk =   0.1250000
        k(    2) = (   0.0000000   0.0000000  -0.5000000), wk =   0.2500000
        k(    3) = (   0.0000000  -0.5000000  -0.5000000), wk =   0.1250000
        k(    4) = (  -0.5000000  -0.5000000  -0.5000000), wk =   0.1250000
        k(    5) = (  -0.5000000   0.0000000   0.0000000), wk =   0.1250000
        k(    6) = (  -0.5000000   0.0000000   0.5000000), wk =   0.2500000

     Dense  grid:   628003 G-vectors     FFT dimensions: ( 108, 108, 108)

     Dynamical RAM for                 wfc:     403.90 MB

     Dynamical RAM for     wfc (w. buffer):    5250.70 MB

     Dynamical RAM for           str. fact:      38.33 MB

     Dynamical RAM for           local pot:       0.00 MB

     Dynamical RAM for          nlocal pot:    1192.52 MB

     Dynamical RAM for                qrad:       5.74 MB

     Dynamical RAM for          rho,v,vnew:     115.16 MB

     Dynamical RAM for               rhoin:      38.39 MB

     Dynamical RAM for            rho*nmix:     459.96 MB

     Dynamical RAM for           G-vectors:      40.73 MB

     Dynamical RAM for          h,s,v(r/c):      20.80 MB

     Dynamical RAM for          <psi|beta>:       5.12 MB

     Dynamical RAM for                 psi:     807.80 MB

     Dynamical RAM for                hpsi:     807.80 MB

     Dynamical RAM for      wfcinit/wfcrot:     810.40 MB

     Estimated static dynamical RAM per process >       6.63 GB

     Estimated max dynamical RAM per process >       8.68 GB
     Generating pointlists ...
     new r_m :   0.0905 (alat units)  1.6898 (a.u.) for type    1
     new r_m :   0.0964 (alat units)  1.7993 (a.u.) for type    2
     new r_m :   0.0691 (alat units)  1.2887 (a.u.) for type    3
     new r_m :   0.0691 (alat units)  1.2887 (a.u.) for type    4

     Initial potential from superposition of free atoms

     starting charge     560.9901, renormalised to     561.0000
     Starting wfcs are  359 randomized atomic wfcs

     total cpu time spent up to now is        9.7 secs

     per-process dynamical memory:  6090.9 Mb

     Self-consistent Calculation
[tb_dev] Currently allocated     1.30E+01 Mbytes, locked:    0 /   3
[tb_pin] Currently allocated     0.00E+00 Mbytes, locked:    0 /   0

     iteration #  1     ecut=    80.00 Ry     beta= 0.05
     Davidson diagonalization with overlap

---- Real-time Memory Report at c_bands before calling an iterative solver
          7519 MiB given to the printing process from OS
          5984 MiB allocation reported by mallinfo(arena+hblkhd)
         44210 MiB available memory on the node where the printing process lives
     GPU memory used/free/total (MiB): 10884 / 70297 / 81182
------------------
     c_bands:  1 eigenvalues not converged
     c_bands:  1 eigenvalues not converged
     c_bands:  1 eigenvalues not converged
     c_bands:  1 eigenvalues not converged
     c_bands:  1 eigenvalues not converged
     ethr =  1.00E-04,  avg # of iterations = 17.3

     total cpu time spent up to now is       48.6 secs

     total energy              =   -6473.94240544 Ry
     estimated scf accuracy    <       2.30044020 Ry

     total magnetization       =   -27.84 Bohr mag/cell
     absolute magnetization    =    83.59 Bohr mag/cell
[tb_dev] Currently allocated     0.00E+00 Mbytes, locked:    0 /   0
[tb_pin] Currently allocated     0.00E+00 Mbytes, locked:    0 /   0

     iteration #  2     ecut=    80.00 Ry     beta= 0.05
     Davidson diagonalization with overlap

---- Real-time Memory Report at c_bands before calling an iterative solver
          7702 MiB given to the printing process from OS
          6606 MiB allocation reported by mallinfo(arena+hblkhd)
         44044 MiB available memory on the node where the printing process lives
     GPU memory used/free/total (MiB): 12838 / 68343 / 81182
------------------
     ethr =  4.10E-04,  avg # of iterations =  1.1

     total cpu time spent up to now is       62.2 secs

     total energy              =   -6473.98600872 Ry
     estimated scf accuracy    <       1.90295242 Ry

     total magnetization       =   -27.25 Bohr mag/cell
     absolute magnetization    =    82.33 Bohr mag/cell
[tb_dev] Currently allocated     0.00E+00 Mbytes, locked:    0 /   0
[tb_pin] Currently allocated     0.00E+00 Mbytes, locked:    0 /   0

     iteration #  3     ecut=    80.00 Ry     beta= 0.05
     Davidson diagonalization with overlap

---- Real-time Memory Report at c_bands before calling an iterative solver
          7793 MiB given to the printing process from OS
          6664 MiB allocation reported by mallinfo(arena+hblkhd)
         43959 MiB available memory on the node where the printing process lives
     GPU memory used/free/total (MiB): 12838 / 68343 / 81182
------------------
     ethr =  3.39E-04,  avg # of iterations =  1.0

     total cpu time spent up to now is       76.2 secs

     total energy              =   -6474.08992619 Ry
     estimated scf accuracy    <       1.62751439 Ry

     total magnetization       =   -26.37 Bohr mag/cell
     absolute magnetization    =    80.68 Bohr mag/cell
[tb_dev] Currently allocated     0.00E+00 Mbytes, locked:    0 /   0
[tb_pin] Currently allocated     0.00E+00 Mbytes, locked:    0 /   0

     iteration #  4     ecut=    80.00 Ry     beta= 0.05
     Davidson diagonalization with overlap

---- Real-time Memory Report at c_bands before calling an iterative solver
          7880 MiB given to the printing process from OS
          6721 MiB allocation reported by mallinfo(arena+hblkhd)
         43867 MiB available memory on the node where the printing process lives
     GPU memory used/free/total (MiB): 12838 / 68343 / 81182
------------------
     ethr =  2.90E-04,  avg # of iterations =  1.1

     total cpu time spent up to now is       90.1 secs

     total energy              =   -6474.19724996 Ry
     estimated scf accuracy    <       1.16265931 Ry

     total magnetization       =   -25.10 Bohr mag/cell
     absolute magnetization    =    78.00 Bohr mag/cell
[tb_dev] Currently allocated     0.00E+00 Mbytes, locked:    0 /   0
[tb_pin] Currently allocated     0.00E+00 Mbytes, locked:    0 /   0

     iteration #  5     ecut=    80.00 Ry     beta= 0.05
     Davidson diagonalization with overlap

---- Real-time Memory Report at c_bands before calling an iterative solver
          7987 MiB given to the printing process from OS
          6740 MiB allocation reported by mallinfo(arena+hblkhd)
         43741 MiB available memory on the node where the printing process lives
     GPU memory used/free/total (MiB): 12838 / 68343 / 81182
------------------
     ethr =  2.07E-04,  avg # of iterations =  1.0

     total cpu time spent up to now is      104.7 secs

     total energy              =   -6474.38869936 Ry
     estimated scf accuracy    <       0.83536985 Ry

     total magnetization       =   -25.61 Bohr mag/cell
     absolute magnetization    =    78.09 Bohr mag/cell
[tb_dev] Currently allocated     0.00E+00 Mbytes, locked:    0 /   0
[tb_pin] Currently allocated     0.00E+00 Mbytes, locked:    0 /   0

     iteration #  6     ecut=    80.00 Ry     beta= 0.05
     Davidson diagonalization with overlap

---- Real-time Memory Report at c_bands before calling an iterative solver
          8076 MiB given to the printing process from OS
          6817 MiB allocation reported by mallinfo(arena+hblkhd)
         43702 MiB available memory on the node where the printing process lives
     GPU memory used/free/total (MiB): 12838 / 68343 / 81182
------------------
     ethr =  1.49E-04,  avg # of iterations =  2.3

     total cpu time spent up to now is      119.8 secs

     total energy              =   -6474.48306726 Ry
     estimated scf accuracy    <       0.26391918 Ry

     total magnetization       =   -26.46 Bohr mag/cell
     absolute magnetization    =    78.07 Bohr mag/cell
[tb_dev] Currently allocated     0.00E+00 Mbytes, locked:    0 /   0
[tb_pin] Currently allocated     0.00E+00 Mbytes, locked:    0 /   0

     iteration #  7     ecut=    80.00 Ry     beta= 0.05
     Davidson diagonalization with overlap

---- Real-time Memory Report at c_bands before calling an iterative solver
          8174 MiB given to the printing process from OS
          6817 MiB allocation reported by mallinfo(arena+hblkhd)
         43536 MiB available memory on the node where the printing process lives
     GPU memory used/free/total (MiB): 12838 / 68343 / 81182
------------------
     c_bands:  1 eigenvalues not converged
     ethr =  4.70E-05,  avg # of iterations =  5.0

     total cpu time spent up to now is      135.9 secs

     total energy              =   -6474.50794346 Ry
     estimated scf accuracy    <       0.11769781 Ry

     total magnetization       =   -26.24 Bohr mag/cell
     absolute magnetization    =    77.47 Bohr mag/cell
[tb_dev] Currently allocated     0.00E+00 Mbytes, locked:    0 /   0
[tb_pin] Currently allocated     0.00E+00 Mbytes, locked:    0 /   0

     iteration #  8     ecut=    80.00 Ry     beta= 0.05
     Davidson diagonalization with overlap

---- Real-time Memory Report at c_bands before calling an iterative solver
          8243 MiB given to the printing process from OS
          6894 MiB allocation reported by mallinfo(arena+hblkhd)
         43453 MiB available memory on the node where the printing process lives
     GPU memory used/free/total (MiB): 12838 / 68343 / 81182
------------------
     ethr =  2.10E-05,  avg # of iterations =  2.8

     total cpu time spent up to now is      151.3 secs

     total energy              =   -6474.51122522 Ry
     estimated scf accuracy    <       0.08457808 Ry

     total magnetization       =   -26.23 Bohr mag/cell
     absolute magnetization    =    77.32 Bohr mag/cell
[tb_dev] Currently allocated     0.00E+00 Mbytes, locked:    0 /   0
[tb_pin] Currently allocated     0.00E+00 Mbytes, locked:    0 /   0

     iteration #  9     ecut=    80.00 Ry     beta= 0.05
     Davidson diagonalization with overlap

---- Real-time Memory Report at c_bands before calling an iterative solver
          8322 MiB given to the printing process from OS
          6913 MiB allocation reported by mallinfo(arena+hblkhd)
         43407 MiB available memory on the node where the printing process lives
     GPU memory used/free/total (MiB): 12838 / 68343 / 81182
------------------
     c_bands:  1 eigenvalues not converged
     ethr =  1.51E-05,  avg # of iterations =  5.8

     total cpu time spent up to now is      168.0 secs

     total energy              =   -6474.51363050 Ry
     estimated scf accuracy    <       0.04639815 Ry

     total magnetization       =   -26.65 Bohr mag/cell
     absolute magnetization    =    77.59 Bohr mag/cell
[tb_dev] Currently allocated     0.00E+00 Mbytes, locked:    0 /   0
[tb_pin] Currently allocated     0.00E+00 Mbytes, locked:    0 /   0

     iteration # 10     ecut=    80.00 Ry     beta= 0.05
     Davidson diagonalization with overlap

---- Real-time Memory Report at c_bands before calling an iterative solver
          8360 MiB given to the printing process from OS
          6971 MiB allocation reported by mallinfo(arena+hblkhd)
         43329 MiB available memory on the node where the printing process lives
     GPU memory used/free/total (MiB): 12838 / 68343 / 81182
------------------
     c_bands:  1 eigenvalues not converged
     ethr =  8.27E-06,  avg # of iterations = 11.4

     total cpu time spent up to now is      189.9 secs

     total energy              =   -6474.51833343 Ry
     estimated scf accuracy    <       0.01353719 Ry

     total magnetization       =   -26.58 Bohr mag/cell
     absolute magnetization    =    77.07 Bohr mag/cell
[tb_dev] Currently allocated     0.00E+00 Mbytes, locked:    0 /   0
[tb_pin] Currently allocated     0.00E+00 Mbytes, locked:    0 /   0

     iteration # 11     ecut=    80.00 Ry     beta= 0.05
     Davidson diagonalization with overlap

---- Real-time Memory Report at c_bands before calling an iterative solver
          8414 MiB given to the printing process from OS
          6990 MiB allocation reported by mallinfo(arena+hblkhd)
         43326 MiB available memory on the node where the printing process lives
     GPU memory used/free/total (MiB): 12838 / 68343 / 81182
------------------
     c_bands:  1 eigenvalues not converged
     c_bands:  1 eigenvalues not converged
     ethr =  2.41E-06,  avg # of iterations =  5.0

     total cpu time spent up to now is      206.4 secs

     total energy              =   -6474.51889765 Ry
     estimated scf accuracy    <       0.00915100 Ry

     total magnetization       =   -26.44 Bohr mag/cell
     absolute magnetization    =    76.88 Bohr mag/cell
[tb_dev] Currently allocated     0.00E+00 Mbytes, locked:    0 /   0
[tb_pin] Currently allocated     0.00E+00 Mbytes, locked:    0 /   0

     iteration # 12     ecut=    80.00 Ry     beta= 0.05
     Davidson diagonalization with overlap

---- Real-time Memory Report at c_bands before calling an iterative solver
          8492 MiB given to the printing process from OS
          7028 MiB allocation reported by mallinfo(arena+hblkhd)
         43268 MiB available memory on the node where the printing process lives
     GPU memory used/free/total (MiB): 12838 / 68343 / 81182
------------------
     c_bands:  1 eigenvalues not converged
     c_bands:  1 eigenvalues not converged
     c_bands:  1 eigenvalues not converged
     c_bands:  1 eigenvalues not converged
     ethr =  1.63E-06,  avg # of iterations = 15.3

     total cpu time spent up to now is      230.1 secs

     total energy              =   -6474.52015764 Ry
     estimated scf accuracy    <       0.00388261 Ry

     total magnetization       =   -26.35 Bohr mag/cell
     absolute magnetization    =    76.71 Bohr mag/cell
[tb_dev] Currently allocated     0.00E+00 Mbytes, locked:    0 /   0
[tb_pin] Currently allocated     0.00E+00 Mbytes, locked:    0 /   0

     iteration # 13     ecut=    80.00 Ry     beta= 0.05
     Davidson diagonalization with overlap

---- Real-time Memory Report at c_bands before calling an iterative solver
          8570 MiB given to the printing process from OS
          7086 MiB allocation reported by mallinfo(arena+hblkhd)
         43233 MiB available memory on the node where the printing process lives
     GPU memory used/free/total (MiB): 12838 / 68343 / 81182
------------------
     c_bands:  1 eigenvalues not converged
     ethr =  6.92E-07,  avg # of iterations =  6.9

     total cpu time spent up to now is      248.4 secs

     total energy              =   -6474.52099956 Ry
     estimated scf accuracy    <       0.00293840 Ry

     total magnetization       =   -26.37 Bohr mag/cell
     absolute magnetization    =    76.65 Bohr mag/cell
[tb_dev] Currently allocated     0.00E+00 Mbytes, locked:    0 /   0
[tb_pin] Currently allocated     0.00E+00 Mbytes, locked:    0 /   0

     iteration # 14     ecut=    80.00 Ry     beta= 0.05
     Davidson diagonalization with overlap

---- Real-time Memory Report at c_bands before calling an iterative solver
          8646 MiB given to the printing process from OS
          7124 MiB allocation reported by mallinfo(arena+hblkhd)
         43112 MiB available memory on the node where the printing process lives
     GPU memory used/free/total (MiB): 12838 / 68343 / 81182
------------------
     c_bands:  1 eigenvalues not converged
     ethr =  5.24E-07,  avg # of iterations =  4.9

     total cpu time spent up to now is      264.4 secs

     total energy              =   -6474.52119506 Ry
     estimated scf accuracy    <       0.00290479 Ry

     total magnetization       =   -26.38 Bohr mag/cell
     absolute magnetization    =    76.51 Bohr mag/cell
[tb_dev] Currently allocated     0.00E+00 Mbytes, locked:    0 /   0
[tb_pin] Currently allocated     0.00E+00 Mbytes, locked:    0 /   0

     iteration # 15     ecut=    80.00 Ry     beta= 0.05
     Davidson diagonalization with overlap

---- Real-time Memory Report at c_bands before calling an iterative solver
          8646 MiB given to the printing process from OS
          7124 MiB allocation reported by mallinfo(arena+hblkhd)
         43110 MiB available memory on the node where the printing process lives
     GPU memory used/free/total (MiB): 12838 / 68343 / 81182
------------------
     c_bands:  1 eigenvalues not converged
     ethr =  5.18E-07,  avg # of iterations =  2.8

     total cpu time spent up to now is      279.7 secs

     total energy              =   -6474.52156653 Ry
     estimated scf accuracy    <       0.00197120 Ry

     total magnetization       =   -26.38 Bohr mag/cell
     absolute magnetization    =    76.50 Bohr mag/cell
[tb_dev] Currently allocated     0.00E+00 Mbytes, locked:    0 /   0
[tb_pin] Currently allocated     0.00E+00 Mbytes, locked:    0 /   0

     iteration # 16     ecut=    80.00 Ry     beta= 0.05
     Davidson diagonalization with overlap

---- Real-time Memory Report at c_bands before calling an iterative solver
          8646 MiB given to the printing process from OS
          7124 MiB allocation reported by mallinfo(arena+hblkhd)
         42996 MiB available memory on the node where the printing process lives
     GPU memory used/free/total (MiB): 12838 / 68343 / 81182
------------------
     c_bands:  1 eigenvalues not converged
     ethr =  3.51E-07,  avg # of iterations = 12.1

     total cpu time spent up to now is      301.6 secs

     total energy              =   -6474.52191802 Ry
     estimated scf accuracy    <       0.00082395 Ry

     total magnetization       =   -26.28 Bohr mag/cell
     absolute magnetization    =    76.34 Bohr mag/cell
[tb_dev] Currently allocated     0.00E+00 Mbytes, locked:    0 /   0
[tb_pin] Currently allocated     0.00E+00 Mbytes, locked:    0 /   0

     iteration # 17     ecut=    80.00 Ry     beta= 0.05
     Davidson diagonalization with overlap

---- Real-time Memory Report at c_bands before calling an iterative solver
          8646 MiB given to the printing process from OS
          7124 MiB allocation reported by mallinfo(arena+hblkhd)
         43126 MiB available memory on the node where the printing process lives
     GPU memory used/free/total (MiB): 12840 / 68341 / 81182
------------------
     c_bands:  1 eigenvalues not converged
     c_bands:  1 eigenvalues not converged
     c_bands:  1 eigenvalues not converged
     ethr =  1.47E-07,  avg # of iterations =  7.3

     total cpu time spent up to now is      319.5 secs

     total energy              =   -6474.52216629 Ry
     estimated scf accuracy    <       0.00064624 Ry

     total magnetization       =   -26.26 Bohr mag/cell
     absolute magnetization    =    76.27 Bohr mag/cell
[tb_dev] Currently allocated     0.00E+00 Mbytes, locked:    0 /   0
[tb_pin] Currently allocated     0.00E+00 Mbytes, locked:    0 /   0

     iteration # 18     ecut=    80.00 Ry     beta= 0.05
     Davidson diagonalization with overlap

---- Real-time Memory Report at c_bands before calling an iterative solver
          8646 MiB given to the printing process from OS
          7124 MiB allocation reported by mallinfo(arena+hblkhd)
         43143 MiB available memory on the node where the printing process lives
     GPU memory used/free/total (MiB): 12840 / 68341 / 81182
------------------
     ethr =  1.15E-07,  avg # of iterations = 10.8

     total cpu time spent up to now is      340.6 secs

     total energy              =   -6474.52235475 Ry
     estimated scf accuracy    <       0.00032339 Ry

     total magnetization       =   -26.17 Bohr mag/cell
     absolute magnetization    =    76.08 Bohr mag/cell
[tb_dev] Currently allocated     0.00E+00 Mbytes, locked:    0 /   0
[tb_pin] Currently allocated     0.00E+00 Mbytes, locked:    0 /   0

     iteration # 19     ecut=    80.00 Ry     beta= 0.05
     Davidson diagonalization with overlap

---- Real-time Memory Report at c_bands before calling an iterative solver
          8646 MiB given to the printing process from OS
          7124 MiB allocation reported by mallinfo(arena+hblkhd)
         43131 MiB available memory on the node where the printing process lives
     GPU memory used/free/total (MiB): 12840 / 68341 / 81182
------------------
     ethr =  5.76E-08,  avg # of iterations =  5.4

     total cpu time spent up to now is      357.4 secs

     total energy              =   -6474.52242562 Ry
     estimated scf accuracy    <       0.00022622 Ry

     total magnetization       =   -26.14 Bohr mag/cell
     absolute magnetization    =    76.03 Bohr mag/cell
[tb_dev] Currently allocated     0.00E+00 Mbytes, locked:    0 /   0
[tb_pin] Currently allocated     0.00E+00 Mbytes, locked:    0 /   0

     iteration # 20     ecut=    80.00 Ry     beta= 0.05
     Davidson diagonalization with overlap

---- Real-time Memory Report at c_bands before calling an iterative solver
          8646 MiB given to the printing process from OS
          7124 MiB allocation reported by mallinfo(arena+hblkhd)
         43652 MiB available memory on the node where the printing process lives
     GPU memory used/free/total (MiB): 14034 / 67147 / 81182
------------------
     ethr =  4.03E-08,  avg # of iterations =  2.5

     total cpu time spent up to now is      366.6 secs

     total energy              =   -6474.52246556 Ry
     estimated scf accuracy    <       0.00019057 Ry

     total magnetization       =   -26.12 Bohr mag/cell
     absolute magnetization    =    75.98 Bohr mag/cell
[tb_dev] Currently allocated     0.00E+00 Mbytes, locked:    0 /   0
[tb_pin] Currently allocated     0.00E+00 Mbytes, locked:    0 /   0

     iteration # 21     ecut=    80.00 Ry     beta= 0.05
     Davidson diagonalization with overlap

---- Real-time Memory Report at c_bands before calling an iterative solver
          8646 MiB given to the printing process from OS
          7124 MiB allocation reported by mallinfo(arena+hblkhd)
         48763 MiB available memory on the node where the printing process lives
     GPU memory used/free/total (MiB): 10886 / 70295 / 81182
------------------
     ethr =  3.40E-08,  avg # of iterations =  2.0

     total cpu time spent up to now is      382.2 secs

     total energy              =   -6474.52251474 Ry
     estimated scf accuracy    <       0.00012484 Ry

     total magnetization       =   -26.08 Bohr mag/cell
     absolute magnetization    =    75.92 Bohr mag/cell
[tb_dev] Currently allocated     0.00E+00 Mbytes, locked:    0 /   0
[tb_pin] Currently allocated     0.00E+00 Mbytes, locked:    0 /   0

     iteration # 22     ecut=    80.00 Ry     beta= 0.05
     Davidson diagonalization with overlap

---- Real-time Memory Report at c_bands before calling an iterative solver
          8646 MiB given to the printing process from OS
          7124 MiB allocation reported by mallinfo(arena+hblkhd)
         44211 MiB available memory on the node where the printing process lives
     GPU memory used/free/total (MiB): 12520 / 68661 / 81182
------------------
     c_bands:  1 eigenvalues not converged
     c_bands:  1 eigenvalues not converged
     ethr =  2.23E-08,  avg # of iterations =  7.8

     total cpu time spent up to now is      403.8 secs

     total energy              =   -6474.52254350 Ry
     estimated scf accuracy    <       0.00008635 Ry

     total magnetization       =   -26.04 Bohr mag/cell
     absolute magnetization    =    75.86 Bohr mag/cell
[tb_dev] Currently allocated     0.00E+00 Mbytes, locked:    0 /   0
[tb_pin] Currently allocated     0.00E+00 Mbytes, locked:    0 /   0

     iteration # 23     ecut=    80.00 Ry     beta= 0.05
     Davidson diagonalization with overlap

---- Real-time Memory Report at c_bands before calling an iterative solver
          8646 MiB given to the printing process from OS
          7124 MiB allocation reported by mallinfo(arena+hblkhd)
         44235 MiB available memory on the node where the printing process lives
     GPU memory used/free/total (MiB): 12520 / 68661 / 81182
------------------
     c_bands:  1 eigenvalues not converged
     ethr =  1.54E-08,  avg # of iterations =  4.3

     total cpu time spent up to now is      421.2 secs

     total energy              =   -6474.52257594 Ry
     estimated scf accuracy    <       0.00007585 Ry

     total magnetization       =   -26.03 Bohr mag/cell
     absolute magnetization    =    75.83 Bohr mag/cell
[tb_dev] Currently allocated     0.00E+00 Mbytes, locked:    0 /   0
[tb_pin] Currently allocated     0.00E+00 Mbytes, locked:    0 /   0

     iteration # 24     ecut=    80.00 Ry     beta= 0.05
     Davidson diagonalization with overlap

---- Real-time Memory Report at c_bands before calling an iterative solver
          8646 MiB given to the printing process from OS
          7124 MiB allocation reported by mallinfo(arena+hblkhd)
         44242 MiB available memory on the node where the printing process lives
     GPU memory used/free/total (MiB): 12520 / 68661 / 81182
------------------
     ethr =  1.35E-08,  avg # of iterations =  4.8

     total cpu time spent up to now is      437.7 secs

     total energy              =   -6474.52260365 Ry
     estimated scf accuracy    <       0.00004352 Ry

     total magnetization       =   -25.99 Bohr mag/cell
     absolute magnetization    =    75.79 Bohr mag/cell
[tb_dev] Currently allocated     0.00E+00 Mbytes, locked:    0 /   0
[tb_pin] Currently allocated     0.00E+00 Mbytes, locked:    0 /   0

     iteration # 25     ecut=    80.00 Ry     beta= 0.05
     Davidson diagonalization with overlap

---- Real-time Memory Report at c_bands before calling an iterative solver
          8646 MiB given to the printing process from OS
          7124 MiB allocation reported by mallinfo(arena+hblkhd)
         44181 MiB available memory on the node where the printing process lives
     GPU memory used/free/total (MiB): 12840 / 68341 / 81182
------------------
     c_bands:  1 eigenvalues not converged
     c_bands:  1 eigenvalues not converged
     ethr =  7.76E-09,  avg # of iterations =  8.8

     total cpu time spent up to now is      456.7 secs

     total energy              =   -6474.52261775 Ry
     estimated scf accuracy    <       0.00002943 Ry

     total magnetization       =   -25.95 Bohr mag/cell
     absolute magnetization    =    75.74 Bohr mag/cell
[tb_dev] Currently allocated     0.00E+00 Mbytes, locked:    0 /   0
[tb_pin] Currently allocated     0.00E+00 Mbytes, locked:    0 /   0

     iteration # 26     ecut=    80.00 Ry     beta= 0.05
     Davidson diagonalization with overlap

---- Real-time Memory Report at c_bands before calling an iterative solver
          8646 MiB given to the printing process from OS
          7124 MiB allocation reported by mallinfo(arena+hblkhd)
         44023 MiB available memory on the node where the printing process lives
     GPU memory used/free/total (MiB): 12840 / 68341 / 81182
------------------
     ethr =  5.25E-09,  avg # of iterations =  2.8

     total cpu time spent up to now is      471.9 secs

     total energy              =   -6474.52262579 Ry
     estimated scf accuracy    <       0.00002196 Ry

     total magnetization       =   -25.94 Bohr mag/cell
     absolute magnetization    =    75.72 Bohr mag/cell
[tb_dev] Currently allocated     0.00E+00 Mbytes, locked:    0 /   0
[tb_pin] Currently allocated     0.00E+00 Mbytes, locked:    0 /   0

     iteration # 27     ecut=    80.00 Ry     beta= 0.05
     Davidson diagonalization with overlap

---- Real-time Memory Report at c_bands before calling an iterative solver
          8649 MiB given to the printing process from OS
          7124 MiB allocation reported by mallinfo(arena+hblkhd)
         43997 MiB available memory on the node where the printing process lives
     GPU memory used/free/total (MiB): 12840 / 68341 / 81182
------------------
     ethr =  3.91E-09,  avg # of iterations =  2.1

     total cpu time spent up to now is      486.1 secs

     total energy              =   -6474.52263341 Ry
     estimated scf accuracy    <       0.00001549 Ry

     total magnetization       =   -25.92 Bohr mag/cell
     absolute magnetization    =    75.69 Bohr mag/cell
[tb_dev] Currently allocated     0.00E+00 Mbytes, locked:    0 /   0
[tb_pin] Currently allocated     0.00E+00 Mbytes, locked:    0 /   0

     iteration # 28     ecut=    80.00 Ry     beta= 0.05
     Davidson diagonalization with overlap

---- Real-time Memory Report at c_bands before calling an iterative solver
          8662 MiB given to the printing process from OS
          7124 MiB allocation reported by mallinfo(arena+hblkhd)
         43902 MiB available memory on the node where the printing process lives
     GPU memory used/free/total (MiB): 12840 / 68341 / 81182
------------------
     c_bands:  1 eigenvalues not converged
     ethr =  2.76E-09,  avg # of iterations =  4.3

     total cpu time spent up to now is      503.1 secs

     total energy              =   -6474.52263806 Ry
     estimated scf accuracy    <       0.00001005 Ry

     total magnetization       =   -25.90 Bohr mag/cell
     absolute magnetization    =    75.67 Bohr mag/cell
[tb_dev] Currently allocated     0.00E+00 Mbytes, locked:    0 /   0
[tb_pin] Currently allocated     0.00E+00 Mbytes, locked:    0 /   0

     iteration # 29     ecut=    80.00 Ry     beta= 0.05
     Davidson diagonalization with overlap

---- Real-time Memory Report at c_bands before calling an iterative solver
          8670 MiB given to the printing process from OS
          7124 MiB allocation reported by mallinfo(arena+hblkhd)
         43802 MiB available memory on the node where the printing process lives
     GPU memory used/free/total (MiB): 12840 / 68341 / 81182
------------------
     c_bands:  1 eigenvalues not converged
     c_bands:  1 eigenvalues not converged
     ethr =  1.79E-09,  avg # of iterations = 10.9
 
     Magnetic moment per site  (integrated on atomic sphere of radius R)
     atom   1 (R=0.091)  charge= 13.6545  magn=  2.7120
     atom   2 (R=0.091)  charge= 13.6460  magn=  2.7380
     atom   3 (R=0.091)  charge= 13.6533  magn=  2.7073
     atom   4 (R=0.091)  charge= 13.6432  magn=  2.7853
     atom   5 (R=0.091)  charge= 13.6533  magn=  2.7073
     atom   6 (R=0.091)  charge= 13.6545  magn=  2.7120
     atom   7 (R=0.091)  charge= 13.6460  magn=  2.7380
     atom   8 (R=0.091)  charge= 13.6432  magn=  2.7853
     atom   9 (R=0.096)  charge= 13.8534  magn= -3.0412
     atom  10 (R=0.096)  charge= 13.8534  magn= -3.0412
     atom  11 (R=0.096)  charge= 13.8488  magn= -3.0643
     atom  12 (R=0.096)  charge= 13.8500  magn= -3.0598
     atom  13 (R=0.096)  charge= 13.8632  magn= -3.0133
     atom  14 (R=0.096)  charge= 13.8632  magn= -3.0133
     atom  15 (R=0.096)  charge= 13.8597  magn= -3.0162
     atom  16 (R=0.096)  charge= 13.8581  magn= -3.0282
     atom  17 (R=0.096)  charge= 13.8653  magn= -3.0039
     atom  18 (R=0.096)  charge= 13.8492  magn= -3.0619
     atom  19 (R=0.096)  charge= 13.8509  magn= -3.0755
     atom  20 (R=0.096)  charge= 13.8581  magn= -3.0282
     atom  21 (R=0.096)  charge= 13.8492  magn= -3.0619
     atom  22 (R=0.096)  charge= 13.8653  magn= -3.0039
     atom  23 (R=0.096)  charge= 13.8509  magn= -3.0755
     atom  24 (R=0.069)  charge=  1.7645  magn= -0.0356
     atom  25 (R=0.069)  charge=  1.7617  magn= -0.0252
     atom  26 (R=0.069)  charge=  1.7631  magn= -0.0256
     atom  27 (R=0.069)  charge=  1.7630  magn= -0.0234
     atom  28 (R=0.069)  charge=  1.7631  magn= -0.0256
     atom  29 (R=0.069)  charge=  1.7645  magn= -0.0356
     atom  30 (R=0.069)  charge=  1.7617  magn= -0.0252
     atom  31 (R=0.069)  charge=  1.7630  magn= -0.0234
     atom  32 (R=0.069)  charge=  1.7623  magn= -0.0303
     atom  33 (R=0.069)  charge=  1.7630  magn= -0.0185
     atom  34 (R=0.069)  charge=  1.7630  magn= -0.0289
     atom  35 (R=0.069)  charge=  1.7625  magn= -0.0252
     atom  36 (R=0.069)  charge=  1.7630  magn= -0.0289
     atom  37 (R=0.069)  charge=  1.7623  magn= -0.0303
     atom  38 (R=0.069)  charge=  1.7630  magn= -0.0185
     atom  39 (R=0.069)  charge=  1.7625  magn= -0.0252
     atom  40 (R=0.069)  charge=  1.7616  magn= -0.0303
     atom  41 (R=0.069)  charge=  1.7632  magn= -0.0282
     atom  42 (R=0.069)  charge=  1.7634  magn= -0.0273
     atom  43 (R=0.069)  charge=  1.7662  magn= -0.0265
     atom  44 (R=0.069)  charge=  1.7643  magn= -0.0275
     atom  45 (R=0.069)  charge=  1.7634  magn= -0.0253
     atom  46 (R=0.069)  charge=  1.7625  magn= -0.0263
     atom  47 (R=0.069)  charge=  1.7629  magn= -0.0271
     atom  48 (R=0.069)  charge=  1.7634  magn= -0.0253
     atom  49 (R=0.069)  charge=  1.7625  magn= -0.0263
     atom  50 (R=0.069)  charge=  1.7643  magn= -0.0275
     atom  51 (R=0.069)  charge=  1.7629  magn= -0.0271
     atom  52 (R=0.069)  charge=  1.7634  magn= -0.0273
     atom  53 (R=0.069)  charge=  1.7616  magn= -0.0303
     atom  54 (R=0.069)  charge=  1.7632  magn= -0.0282
     atom  55 (R=0.069)  charge=  1.7662  magn= -0.0265
     atom  56 (R=0.069)  charge=  0.8046  magn=  0.0015

     total cpu time spent up to now is      523.9 secs

     End of self-consistent calculation

 ------ SPIN UP ------------


          k = 0.0000 0.0000 0.0000 ( 78517 PWs)   bands (ev):

   -80.0958 -80.0956 -80.0512 -80.0511 -80.0133 -80.0131 -80.0085 -80.0083
   -77.1238 -77.1129 -77.1129 -77.1098 -77.1097 -77.1093 -77.1092 -77.1059
   -77.0884 -77.0608 -77.0605 -77.0534 -77.0531 -77.0435 -77.0430 -46.2749
   -46.2747 -46.2257 -46.2254 -46.2222 -46.2221 -46.2121 -46.2119 -46.1763
   -46.1763 -46.1757 -46.1755 -46.1743 -46.1742 -46.1640 -46.1638 -46.1518
   -46.1516 -46.1481 -46.1479 -46.1444 -46.1442 -46.1261 -46.1259 -43.1285
   -43.1216 -43.1210 -43.1196 -43.1195 -43.1157 -43.1156 -43.1140 -43.1082
   -43.1066 -43.1065 -43.0907 -43.0841 -43.0841 -43.0794 -43.0794 -43.0757
   -43.0709 -43.0708 -43.0686 -43.0684 -43.0680 -43.0676 -43.0673 -43.0649
   -43.0646 -43.0632 -43.0603 -43.0600 -43.0591 -43.0569 -43.0567 -43.0538
   -43.0538 -43.0534 -43.0394 -43.0393 -43.0228 -43.0223 -43.0032 -43.0030
   -42.9891 -42.9886 -42.9784 -42.9781  -5.3365  -4.6229  -4.5407  -4.5334
    -4.5149  -4.4893  -4.4581  -4.0483  -3.8995  -3.8928  -3.8696  -3.8513
    -3.8348  -3.8322  -3.8119  -3.8084  -3.7803  -3.7685  -3.7595  -3.7539
    -3.6653  -3.6284  -3.6152  -3.4658  -3.4483  -3.4299  -3.3603  -3.3556
    -3.3178  -3.3070  -3.2642  -3.2556   2.3462   2.5619   3.0862   3.1005
     3.1240   3.3194   3.3793   3.3820   3.4038   3.4159   3.4199   3.5488
     3.6851   3.7597   3.8325   3.8348   3.8440   3.8571   3.8905   3.9030
     3.9141   3.9323   3.9909   4.0100   4.0253   4.4291   4.4862   4.5068
     4.5170   4.5311   4.5396   4.5453   4.5543   4.5724   4.5920   4.6161
     4.6314   4.6383   4.6470   4.6497   4.6702   4.7025   4.7157   4.7455
     4.7562   4.7858   4.8755   4.8769   4.8803   4.9683   5.0495   5.0598
     5.1041   5.1318   5.1403   5.1568   5.1638   5.1842   5.2032   5.2178
     5.3022   5.3804   5.3828   5.5124   5.7468   5.7480   5.7598   5.7706
     5.7738   5.7789   5.7911   5.7999   5.8427   5.8464   5.9042   5.9325
     5.9444   5.9974   5.9996   6.0466   6.1308   6.2935   6.4354   6.4548
     6.5114   6.5465   6.6237   6.6862   6.6892   6.7023   6.7065   6.7137
     6.7445   6.7523   6.7911   6.7933   6.8055   6.8589   6.8885   6.8903
     6.9432   6.9674   7.0016   7.0120   7.0142   7.0236   7.0278   7.0279
     7.0801   7.0939   7.1542   7.1815   7.2378   7.2382   7.2661   7.3652
     7.4136   7.4368   7.5984   7.6158   7.6204   7.6851   7.7197   7.7307
     7.7785   7.8150   7.8240   7.8376   7.9145   8.0220   8.0395   8.1337
     8.1780   8.3083   8.5557   8.5579   8.7153   8.7161   8.7329   8.7999
     8.8095   8.8176   9.0456   9.1082   9.1578   9.1790   9.2164   9.2282
     9.3067   9.3245   9.3319   9.3338   9.3418   9.3495   9.3610   9.3945
     9.4324   9.4491   9.4563   9.4943   9.4985   9.5052   9.5106   9.5172
     9.5311   9.5313   9.5342   9.5543   9.5933   9.6316   9.6346   9.6912
     9.7368   9.7631   9.7840   9.8738   9.8822   9.9165   9.9563   9.9600
    10.2014  10.2114  10.2268  10.2386  10.2474  10.2510  10.2612  10.3105
    10.3291  10.3712  10.3839  10.7050  10.7278  11.0925  11.1013  11.1206
    11.1349  11.1440  11.1493  11.1557  11.1797  11.1898  11.2049  11.2151
    11.2348  11.3374  11.3773  11.3843  11.4414  11.4487  11.4521  12.9573
    13.0114

     occupation numbers 
     1.0000   1.0000   1.0000   1.0000   1.0000   1.0000   1.0000   1.0000
     1.0000   1.0000   1.0000   1.0000   1.0000   1.0000   1.0000   1.0000
     1.0000   1.0000   1.0000   1.0000   1.0000   1.0000   1.0000   1.0000
     1.0000   1.0000   1.0000   1.0000   1.0000   1.0000   1.0000   1.0000
     1.0000   1.0000   1.0000   1.0000   1.0000   1.0000   1.0000   1.0000
     1.0000   1.0000   1.0000   1.0000   1.0000   1.0000   1.0000   1.0000
     1.0000   1.0000   1.0000   1.0000   1.0000   1.0000   1.0000   1.0000
     1.0000   1.0000   1.0000   1.0000   1.0000   1.0000   1.0000   1.0000
     1.0000   1.0000   1.0000   1.0000   1.0000   1.0000   1.0000   1.0000
     1.0000   1.0000   1.0000   1.0000   1.0000   1.0000   1.0000   1.0000
     1.0000   1.0000   1.0000   1.0000   1.0000   1.0000   1.0000   1.0000
     1.0000   1.0000   1.0000   1.0000   1.0000   1.0000   1.0000   1.0000
     1.0000   1.0000   1.0000   1.0000   1.0000   1.0000   1.0000   1.0000
     1.0000   1.0000   1.0000   1.0000   1.0000   1.0000   1.0000   1.0000
     1.0000   1.0000   1.0000   1.0000   1.0000   1.0000   1.0000   1.0000
     1.0000   1.0000   1.0000   1.0000   1.0000   1.0000   1.0000   1.0000
     1.0000   1.0000   1.0000   1.0000   1.0000   1.0000   1.0000   1.0000
     1.0000   1.0000   1.0000   1.0000   1.0000   1.0000   1.0000   1.0000
     1.0000   1.0000   1.0000   1.0000   1.0000   1.0000   1.0000   1.0000
     1.0000   1.0000   1.0000   1.0000   1.0000   1.0000   1.0000   1.0000
     1.0000   1.0000   1.0000   1.0000   1.0000   1.0000   1.0000   1.0000
     1.0000   1.0000   1.0000   1.0000   1.0000   1.0000   1.0000   1.0000
     1.0000   1.0000   1.0000   1.0000   1.0000   1.0000   1.0000   1.0000
     1.0000   1.0000   1.0000   1.0000   1.0000   1.0000   1.0000   1.0000
     1.0000   1.0000   1.0000   1.0000   1.0000   1.0000   1.0000   1.0000
     1.0000   1.0000   1.0000   1.0000   1.0000   1.0000   1.0000   1.0000
     1.0000   1.0000   1.0000   1.0000   1.0000   1.0000   1.0000   1.0000
     1.0000   1.0000   1.0000   1.0000   1.0000   1.0000   1.0000   1.0000
     1.0000   1.0000   1.0000   1.0000   1.0000   1.0000   1.0000   1.0000
     1.0000   1.0000   1.0000   1.0000   1.0000   1.0000   1.0000   1.0000
     1.0000   1.0000   1.0000   1.0000   1.0000   1.0000   1.0000   1.0000
     1.0000   1.0000   1.0000   1.0000   1.0000   1.0000   1.0000   1.0000
     1.0000   1.0000   1.0000   1.0000   1.0000   1.0000   1.0000   1.0000
     1.0000   1.0000   0.2701   0.0278   0.0016   0.0004   0.0000   0.0000
     0.0000   0.0000   0.0000   0.0000   0.0000   0.0000   0.0000   0.0000
     0.0000   0.0000   0.0000   0.0000   0.0000   0.0000   0.0000   0.0000
     0.0000   0.0000   0.0000   0.0000   0.0000   0.0000   0.0000   0.0000
     0.0000   0.0000   0.0000   0.0000   0.0000   0.0000   0.0000   0.0000
     0.0000   0.0000   0.0000   0.0000   0.0000   0.0000   0.0000   0.0000
     0.0000   0.0000   0.0000   0.0000   0.0000   0.0000   0.0000   0.0000
     0.0000   0.0000   0.0000   0.0000   0.0000   0.0000   0.0000   0.0000
     0.0000   0.0000   0.0000   0.0000   0.0000   0.0000   0.0000   0.0000
     0.0000

          k = 0.0000 0.0000-0.5000 ( 78550 PWs)   bands (ev):

   -80.0958 -80.0956 -80.0512 -80.0511 -80.0133 -80.0131 -80.0085 -80.0083
   -77.1238 -77.1129 -77.1129 -77.1098 -77.1097 -77.1093 -77.1092 -77.1059
   -77.0884 -77.0608 -77.0606 -77.0534 -77.0531 -77.0435 -77.0430 -46.2749
   -46.2747 -46.2257 -46.2254 -46.2222 -46.2221 -46.2121 -46.2119 -46.1763
   -46.1763 -46.1757 -46.1755 -46.1743 -46.1742 -46.1640 -46.1637 -46.1519
   -46.1516 -46.1481 -46.1479 -46.1444 -46.1442 -46.1261 -46.1260 -43.1286
   -43.1215 -43.1211 -43.1196 -43.1195 -43.1156 -43.1155 -43.1140 -43.1082
   -43.1066 -43.1065 -43.0907 -43.0841 -43.0841 -43.0794 -43.0794 -43.0757
   -43.0708 -43.0708 -43.0687 -43.0685 -43.0680 -43.0675 -43.0673 -43.0649
   -43.0646 -43.0632 -43.0604 -43.0599 -43.0591 -43.0569 -43.0567 -43.0539
   -43.0538 -43.0534 -43.0394 -43.0393 -43.0228 -43.0223 -43.0032 -43.0030
   -42.9891 -42.9887 -42.9784 -42.9781  -5.1469  -5.0720  -4.5252  -4.4746
    -4.4584  -4.4445  -4.2369  -4.1070  -4.0873  -4.0582  -3.9885  -3.9237
    -3.8496  -3.7830  -3.7691  -3.7388  -3.7225  -3.6934  -3.6772  -3.6668
    -3.5151  -3.5018  -3.4904  -3.4738  -3.4683  -3.4524  -3.4319  -3.4037
    -3.3860  -3.3745  -3.3169  -3.2801   2.5958   2.7111   2.8124   3.2376
     3.2839   3.3808   3.4010   3.4046   3.4183   3.4279   3.4392   3.4567
     3.4650   3.5384   3.5979   3.7138   3.7635   3.8097   3.8950   3.9711
     3.9905   4.0547   4.1253   4.2002   4.2156   4.2436   4.2534   4.2719
     4.2855   4.3280   4.5138   4.5277   4.5450   4.5560   4.5949   4.6146
     4.6196   4.6224   4.6369   4.6604   4.7046   4.7426   4.7595   4.7825
     4.8064   4.8365   4.8630   4.9033   4.9190   4.9419   4.9449   4.9637
     4.9811   5.0047   5.0523   5.0659   5.1138   5.1775   5.2826   5.3002
     5.3168   5.3484   5.5804   5.8289   5.8347   5.8439   5.8604   5.8647
     5.8817   5.8921   5.9140   5.9161   5.9465   5.9599   5.9816   5.9914
     6.0240   6.1089   6.1634   6.2503   6.2907   6.3491   6.3651   6.3755
     6.3855   6.4206   6.4404   6.4503   6.4825   6.4937   6.5242   6.5513
     6.5900   6.6358   6.7027   6.7550   6.7617   6.7785   6.7872   6.8441
     6.8598   6.9483   6.9652   7.0003   7.0370   7.0700   7.0853   7.1461
     7.2020   7.2158   7.2326   7.2390   7.3063   7.3189   7.3988   7.4499
     7.5069   7.5529   7.6079   7.6249   7.6428   7.6518   7.6964   7.7091
     7.7499   7.7938   7.7977   7.8697   7.9819   8.0112   8.2360   8.2909
     8.3033   8.3349   8.4362   8.5282   8.6809   8.7437   8.8767   8.9088
     8.9310   8.9356   8.9753   9.0131   9.0731   9.0882   9.1035   9.1381
     9.1553   9.1902   9.2789   9.3197   9.3276   9.3405   9.3590   9.3832
     9.3977   9.4078   9.4447   9.4721   9.4757   9.4952   9.4976   9.5069
     9.5234   9.5290   9.5471   9.5897   9.6271   9.6326   9.6793   9.6870
     9.7089   9.7432   9.7707   9.8050   9.8354   9.8626   9.9031   9.9631
    10.2004  10.3247  10.3455  10.3690  10.4205  10.5533  10.5714  10.6078
    10.6591  10.6802  10.6831  10.7001  10.7310  10.7405  10.7707  10.7944
    10.8310  10.8578  10.9446  10.9779  11.0421  11.0688  11.0761  11.1239
    11.1299  11.1877  11.2915  11.3151  11.3214  11.3344  11.3657  13.5322
    13.6661

     occupation numbers 
     1.0000   1.0000   1.0000   1.0000   1.0000   1.0000   1.0000   1.0000
     1.0000   1.0000   1.0000   1.0000   1.0000   1.0000   1.0000   1.0000
     1.0000   1.0000   1.0000   1.0000   1.0000   1.0000   1.0000   1.0000
     1.0000   1.0000   1.0000   1.0000   1.0000   1.0000   1.0000   1.0000
     1.0000   1.0000   1.0000   1.0000   1.0000   1.0000   1.0000   1.0000
     1.0000   1.0000   1.0000   1.0000   1.0000   1.0000   1.0000   1.0000
     1.0000   1.0000   1.0000   1.0000   1.0000   1.0000   1.0000   1.0000
     1.0000   1.0000   1.0000   1.0000   1.0000   1.0000   1.0000   1.0000
     1.0000   1.0000   1.0000   1.0000   1.0000   1.0000   1.0000   1.0000
     1.0000   1.0000   1.0000   1.0000   1.0000   1.0000   1.0000   1.0000
     1.0000   1.0000   1.0000   1.0000   1.0000   1.0000   1.0000   1.0000
     1.0000   1.0000   1.0000   1.0000   1.0000   1.0000   1.0000   1.0000
     1.0000   1.0000   1.0000   1.0000   1.0000   1.0000   1.0000   1.0000
     1.0000   1.0000   1.0000   1.0000   1.0000   1.0000   1.0000   1.0000
     1.0000   1.0000   1.0000   1.0000   1.0000   1.0000   1.0000   1.0000
     1.0000   1.0000   1.0000   1.0000   1.0000   1.0000   1.0000   1.0000
     1.0000   1.0000   1.0000   1.0000   1.0000   1.0000   1.0000   1.0000
     1.0000   1.0000   1.0000   1.0000   1.0000   1.0000   1.0000   1.0000
     1.0000   1.0000   1.0000   1.0000   1.0000   1.0000   1.0000   1.0000
     1.0000   1.0000   1.0000   1.0000   1.0000   1.0000   1.0000   1.0000
     1.0000   1.0000   1.0000   1.0000   1.0000   1.0000   1.0000   1.0000
     1.0000   1.0000   1.0000   1.0000   1.0000   1.0000   1.0000   1.0000
     1.0000   1.0000   1.0000   1.0000   1.0000   1.0000   1.0000   1.0000
     1.0000   1.0000   1.0000   1.0000   1.0000   1.0000   1.0000   1.0000
     1.0000   1.0000   1.0000   1.0000   1.0000   1.0000   1.0000   1.0000
     1.0000   1.0000   1.0000   1.0000   1.0000   1.0000   1.0000   1.0000
     1.0000   1.0000   1.0000   1.0000   1.0000   1.0000   1.0000   1.0000
     1.0000   1.0000   1.0000   1.0000   1.0000   1.0000   1.0000   1.0000
     1.0000   1.0000   1.0000   1.0000   1.0000   1.0000   1.0000   1.0000
     1.0000   1.0000   1.0000   1.0000   1.0000   1.0000   1.0000   1.0000
     1.0000   1.0000   1.0000   1.0000   1.0000   1.0000   1.0000   1.0000
     1.0000   1.0000   1.0000   1.0000   1.0000   1.0000   1.0000   1.0000
     1.0000   1.0000   1.0000   1.0000   1.0000   1.0000   0.9981   0.9871
     0.9616   0.9528   0.8020   0.5247   0.1179   0.0670   0.0346   0.0056
     0.0019   0.0001   0.0000   0.0000   0.0000   0.0000   0.0000   0.0000
     0.0000   0.0000   0.0000   0.0000   0.0000   0.0000   0.0000   0.0000
     0.0000   0.0000   0.0000   0.0000   0.0000   0.0000   0.0000   0.0000
     0.0000   0.0000   0.0000   0.0000   0.0000   0.0000   0.0000   0.0000
     0.0000   0.0000   0.0000   0.0000   0.0000   0.0000   0.0000   0.0000
     0.0000   0.0000   0.0000   0.0000   0.0000   0.0000   0.0000   0.0000
     0.0000   0.0000   0.0000   0.0000   0.0000   0.0000   0.0000   0.0000
     0.0000   0.0000   0.0000   0.0000   0.0000   0.0000   0.0000   0.0000
     0.0000

          k = 0.0000-0.5000-0.5000 ( 78412 PWs)   bands (ev):

   -80.0958 -80.0956 -80.0512 -80.0511 -80.0133 -80.0131 -80.0085 -80.0083
   -77.1238 -77.1129 -77.1129 -77.1098 -77.1097 -77.1093 -77.1092 -77.1059
   -77.0883 -77.0608 -77.0605 -77.0534 -77.0531 -77.0435 -77.0430 -46.2749
   -46.2747 -46.2257 -46.2254 -46.2222 -46.2221 -46.2121 -46.2119 -46.1763
   -46.1763 -46.1757 -46.1755 -46.1743 -46.1742 -46.1640 -46.1637 -46.1518
   -46.1516 -46.1481 -46.1479 -46.1444 -46.1442 -46.1261 -46.1259 -43.1285
   -43.1215 -43.1211 -43.1197 -43.1194 -43.1156 -43.1155 -43.1140 -43.1081
   -43.1066 -43.1065 -43.0906 -43.0841 -43.0841 -43.0794 -43.0793 -43.0757
   -43.0708 -43.0708 -43.0686 -43.0684 -43.0680 -43.0676 -43.0673 -43.0648
   -43.0646 -43.0631 -43.0603 -43.0599 -43.0591 -43.0569 -43.0566 -43.0538
   -43.0538 -43.0534 -43.0394 -43.0393 -43.0227 -43.0223 -43.0032 -43.0030
   -42.9891 -42.9886 -42.9784 -42.9781  -4.9855  -4.9024  -4.9012  -4.8279
    -4.3486  -4.2144  -4.1985  -4.1647  -4.1418  -4.0774  -4.0133  -3.9965
    -3.7066  -3.6782  -3.6749  -3.6620  -3.6508  -3.6228  -3.6131  -3.5985
    -3.5681  -3.5673  -3.5492  -3.5219  -3.5156  -3.4733  -3.4527  -3.4270
    -3.4169  -3.3896  -3.3622  -3.2900   2.6070   2.9628   2.9968   2.9974
     3.1151   3.3101   3.3309   3.3664   3.3786   3.4365   3.4778   3.4878
     3.6026   3.6254   3.6278   3.6934   3.7542   3.7620   3.7976   3.8292
     4.0630   4.0793   4.1049   4.1447   4.1527   4.1587   4.1802   4.2569
     4.5396   4.5461   4.5528   4.5806   4.5890   4.5967   4.6014   4.6186
     4.6376   4.6378   4.6635   4.6728   4.6833   4.6875   4.6922   4.6969
     4.7168   4.7515   4.7541   4.7674   4.8470   5.0305   5.0319   5.0555
     5.0680   5.0755   5.0766   5.0941   5.1501   5.1507   5.1820   5.2101
     5.4436   5.5107   5.5218   5.5356   5.7938   5.8320   5.8696   5.8730
     5.8937   5.9346   5.9765   5.9832   5.9971   6.0284   6.0317   6.0620
     6.0806   6.0897   6.0982   6.1097   6.1376   6.1981   6.2273   6.2389
     6.2433   6.2615   6.2751   6.3103   6.3531   6.3903   6.4429   6.4721
     6.5277   6.5353   6.6265   6.7252   6.7447   6.8484   6.8513   6.9300
     6.9878   7.0981   7.1163   7.1338   7.1547   7.1586   7.1797   7.3233
     7.3584   7.3865   7.3891   7.4017   7.4098   7.4184   7.4555   7.4604
     7.4766   7.5247   7.5587   7.5699   7.5755   7.5816   7.6709   7.8430
     7.8683   7.9183   7.9258   7.9602   8.0392   8.0398   8.0576   8.2726
     8.3687   8.3724   8.3795   8.6925   8.8051   8.8361   8.8362   8.9254
     8.9284   8.9384   8.9676   9.0049   9.0504   9.0737   9.1054   9.1784
     9.2012   9.2240   9.2453   9.2505   9.2726   9.2794   9.2811   9.2958
     9.3588   9.3718   9.4280   9.4344   9.4714   9.4828   9.5144   9.5160
     9.5301   9.5318   9.5522   9.5685   9.5747   9.5877   9.6429   9.6523
     9.6532   9.7035   9.7058   9.7209   9.7746   9.7831   9.8627   9.8992
    10.1729  10.6023  10.6058  10.6340  10.6414  10.6556  10.6730  10.6744
    10.6754  10.6935  10.7072  10.7206  10.7272  10.7461  10.8015  10.8114
    10.8163  10.8332  10.8629  10.8849  10.8904  10.9204  10.9787  11.0269
    11.0770  11.0807  11.1194  11.1270  11.2778  11.2964  11.3339  13.4844
    14.1271

     occupation numbers 
     1.0000   1.0000   1.0000   1.0000   1.0000   1.0000   1.0000   1.0000
     1.0000   1.0000   1.0000   1.0000   1.0000   1.0000   1.0000   1.0000
     1.0000   1.0000   1.0000   1.0000   1.0000   1.0000   1.0000   1.0000
     1.0000   1.0000   1.0000   1.0000   1.0000   1.0000   1.0000   1.0000
     1.0000   1.0000   1.0000   1.0000   1.0000   1.0000   1.0000   1.0000
     1.0000   1.0000   1.0000   1.0000   1.0000   1.0000   1.0000   1.0000
     1.0000   1.0000   1.0000   1.0000   1.0000   1.0000   1.0000   1.0000
     1.0000   1.0000   1.0000   1.0000   1.0000   1.0000   1.0000   1.0000
     1.0000   1.0000   1.0000   1.0000   1.0000   1.0000   1.0000   1.0000
     1.0000   1.0000   1.0000   1.0000   1.0000   1.0000   1.0000   1.0000
     1.0000   1.0000   1.0000   1.0000   1.0000   1.0000   1.0000   1.0000
     1.0000   1.0000   1.0000   1.0000   1.0000   1.0000   1.0000   1.0000
     1.0000   1.0000   1.0000   1.0000   1.0000   1.0000   1.0000   1.0000
     1.0000   1.0000   1.0000   1.0000   1.0000   1.0000   1.0000   1.0000
     1.0000   1.0000   1.0000   1.0000   1.0000   1.0000   1.0000   1.0000
     1.0000   1.0000   1.0000   1.0000   1.0000   1.0000   1.0000   1.0000
     1.0000   1.0000   1.0000   1.0000   1.0000   1.0000   1.0000   1.0000
     1.0000   1.0000   1.0000   1.0000   1.0000   1.0000   1.0000   1.0000
     1.0000   1.0000   1.0000   1.0000   1.0000   1.0000   1.0000   1.0000
     1.0000   1.0000   1.0000   1.0000   1.0000   1.0000   1.0000   1.0000
     1.0000   1.0000   1.0000   1.0000   1.0000   1.0000   1.0000   1.0000
     1.0000   1.0000   1.0000   1.0000   1.0000   1.0000   1.0000   1.0000
     1.0000   1.0000   1.0000   1.0000   1.0000   1.0000   1.0000   1.0000
     1.0000   1.0000   1.0000   1.0000   1.0000   1.0000   1.0000   1.0000
     1.0000   1.0000   1.0000   1.0000   1.0000   1.0000   1.0000   1.0000
     1.0000   1.0000   1.0000   1.0000   1.0000   1.0000   1.0000   1.0000
     1.0000   1.0000   1.0000   1.0000   1.0000   1.0000   1.0000   1.0000
     1.0000   1.0000   1.0000   1.0000   1.0000   1.0000   1.0000   1.0000
     1.0000   1.0000   1.0000   1.0000   1.0000   1.0000   1.0000   1.0000
     1.0000   1.0000   1.0000   1.0000   1.0000   1.0000   1.0000   1.0000
     1.0000   1.0000   1.0000   1.0000   1.0000   1.0000   1.0000   1.0000
     1.0000   1.0000   1.0000   1.0000   1.0000   1.0000   1.0000   1.0000
     1.0000   1.0000   1.0000   1.0000   1.0000   0.9999   0.9999   0.9704
     0.9659   0.9469   0.8431   0.5924   0.2378   0.1154   0.0316   0.0004
     0.0001   0.0000   0.0000   0.0000   0.0000   0.0000   0.0000   0.0000
     0.0000   0.0000   0.0000   0.0000   0.0000   0.0000   0.0000   0.0000
     0.0000   0.0000   0.0000   0.0000   0.0000   0.0000   0.0000   0.0000
     0.0000   0.0000   0.0000   0.0000   0.0000   0.0000   0.0000   0.0000
     0.0000   0.0000   0.0000   0.0000   0.0000   0.0000   0.0000   0.0000
     0.0000   0.0000   0.0000   0.0000   0.0000   0.0000   0.0000   0.0000
     0.0000   0.0000   0.0000   0.0000   0.0000   0.0000   0.0000   0.0000
     0.0000   0.0000   0.0000   0.0000   0.0000   0.0000   0.0000   0.0000
     0.0000

          k =-0.5000-0.5000-0.5000 ( 78600 PWs)   bands (ev):

   -80.0958 -80.0956 -80.0512 -80.0511 -80.0133 -80.0131 -80.0085 -80.0083
   -77.1238 -77.1129 -77.1129 -77.1098 -77.1097 -77.1093 -77.1092 -77.1059
   -77.0884 -77.0608 -77.0606 -77.0534 -77.0531 -77.0435 -77.0430 -46.2749
   -46.2747 -46.2257 -46.2255 -46.2222 -46.2221 -46.2121 -46.2119 -46.1763
   -46.1763 -46.1757 -46.1755 -46.1743 -46.1742 -46.1640 -46.1638 -46.1519
   -46.1516 -46.1481 -46.1479 -46.1444 -46.1442 -46.1261 -46.1260 -43.1286
   -43.1215 -43.1211 -43.1199 -43.1193 -43.1157 -43.1154 -43.1141 -43.1082
   -43.1066 -43.1065 -43.0907 -43.0841 -43.0841 -43.0795 -43.0794 -43.0757
   -43.0709 -43.0708 -43.0686 -43.0684 -43.0681 -43.0676 -43.0673 -43.0649
   -43.0646 -43.0632 -43.0603 -43.0600 -43.0591 -43.0570 -43.0567 -43.0539
   -43.0538 -43.0534 -43.0394 -43.0393 -43.0228 -43.0223 -43.0032 -43.0030
   -42.9891 -42.9887 -42.9784 -42.9781  -4.8481  -4.8456  -4.7973  -4.7895
    -4.6317  -4.5406  -4.4924  -4.4085  -3.8749  -3.7323  -3.7052  -3.6943
    -3.6677  -3.6568  -3.6488  -3.6417  -3.6258  -3.6258  -3.6128  -3.6067
    -3.6029  -3.5714  -3.5663  -3.5463  -3.5409  -3.5253  -3.5169  -3.5080
    -3.4446  -3.4313  -3.4205  -3.3861   2.6111   3.0596   3.0855   3.0998
     3.1334   3.1993   3.2101   3.2290   3.3111   3.4500   3.4712   3.4744
     3.4831   3.5008   3.5314   3.6194   3.8765   3.9222   3.9321   3.9681
     4.1180   4.1416   4.1427   4.1570   4.1747   4.2026   4.2408   4.2812
     4.3952   4.4207   4.4699   4.4877   4.5941   4.5982   4.6098   4.6111
     4.6323   4.6506   4.6589   4.6665   4.6771   4.6808   4.6909   4.7106
     4.7440   4.7457   4.7811   4.7952   4.9369   5.1586   5.1847   5.1897
     5.2040   5.2331   5.2432   5.2668   5.2976   5.3828   5.3928   5.4159
     5.4167   5.4295   5.4488   5.4608   5.4803   5.4861   5.5028   5.5124
     5.5912   5.6178   5.6343   5.7292   6.0343   6.0498   6.0716   6.0726
     6.0823   6.0944   6.1054   6.1147   6.1370   6.1468   6.1886   6.1930
     6.2147   6.2195   6.2315   6.2767   6.2829   6.3304   6.4758   6.4760
     6.5004   6.5358   6.6048   6.6112   6.6337   6.6452   6.9273   6.9388
     6.9806   7.0034   7.0065   7.0744   7.1381   7.1536   7.2243   7.2386
     7.2666   7.2992   7.3068   7.3457   7.5998   7.6454   7.6494   7.6605
     7.7023   7.7290   7.7419   7.7532   7.8474   7.8550   7.8881   7.9228
     7.9819   8.0288   8.1299   8.1750   8.2658   8.2691   8.3406   8.3653
     8.4053   8.4164   8.4504   8.5081   8.7544   8.7679   8.7886   8.7910
     8.8202   8.8870   8.9495   8.9575   8.9767   9.0320   9.0659   9.1070
     9.1220   9.1331   9.2437   9.2497   9.2681   9.2702   9.2857   9.3438
     9.3567   9.4369   9.4395   9.4813   9.5084   9.5097   9.5247   9.5305
     9.5326   9.5366   9.5578   9.5588   9.5618   9.5640   9.5798   9.5972
     9.6077   9.6205   9.6293   9.6654   9.6785   9.7111   9.7314   9.8520
     9.9969  10.5538  10.5644  10.5948  10.6333  10.6369  10.6765  10.6904
    10.6988  10.7130  10.7290  10.7339  10.7404  10.7465  10.7624  10.7708
    10.7838  10.7891  10.8072  10.8233  10.9290  10.9371  10.9867  11.1605
    11.1645  11.2997  11.3364  11.3529  11.3827  11.3939  11.3958  13.4904
    14.0918

     occupation numbers 
     1.0000   1.0000   1.0000   1.0000   1.0000   1.0000   1.0000   1.0000
     1.0000   1.0000   1.0000   1.0000   1.0000   1.0000   1.0000   1.0000
     1.0000   1.0000   1.0000   1.0000   1.0000   1.0000   1.0000   1.0000
     1.0000   1.0000   1.0000   1.0000   1.0000   1.0000   1.0000   1.0000
     1.0000   1.0000   1.0000   1.0000   1.0000   1.0000   1.0000   1.0000
     1.0000   1.0000   1.0000   1.0000   1.0000   1.0000   1.0000   1.0000
     1.0000   1.0000   1.0000   1.0000   1.0000   1.0000   1.0000   1.0000
     1.0000   1.0000   1.0000   1.0000   1.0000   1.0000   1.0000   1.0000
     1.0000   1.0000   1.0000   1.0000   1.0000   1.0000   1.0000   1.0000
     1.0000   1.0000   1.0000   1.0000   1.0000   1.0000   1.0000   1.0000
     1.0000   1.0000   1.0000   1.0000   1.0000   1.0000   1.0000   1.0000
     1.0000   1.0000   1.0000   1.0000   1.0000   1.0000   1.0000   1.0000
     1.0000   1.0000   1.0000   1.0000   1.0000   1.0000   1.0000   1.0000
     1.0000   1.0000   1.0000   1.0000   1.0000   1.0000   1.0000   1.0000
     1.0000   1.0000   1.0000   1.0000   1.0000   1.0000   1.0000   1.0000
     1.0000   1.0000   1.0000   1.0000   1.0000   1.0000   1.0000   1.0000
     1.0000   1.0000   1.0000   1.0000   1.0000   1.0000   1.0000   1.0000
     1.0000   1.0000   1.0000   1.0000   1.0000   1.0000   1.0000   1.0000
     1.0000   1.0000   1.0000   1.0000   1.0000   1.0000   1.0000   1.0000
     1.0000   1.0000   1.0000   1.0000   1.0000   1.0000   1.0000   1.0000
     1.0000   1.0000   1.0000   1.0000   1.0000   1.0000   1.0000   1.0000
     1.0000   1.0000   1.0000   1.0000   1.0000   1.0000   1.0000   1.0000
     1.0000   1.0000   1.0000   1.0000   1.0000   1.0000   1.0000   1.0000
     1.0000   1.0000   1.0000   1.0000   1.0000   1.0000   1.0000   1.0000
     1.0000   1.0000   1.0000   1.0000   1.0000   1.0000   1.0000   1.0000
     1.0000   1.0000   1.0000   1.0000   1.0000   1.0000   1.0000   1.0000
     1.0000   1.0000   1.0000   1.0000   1.0000   1.0000   1.0000   1.0000
     1.0000   1.0000   1.0000   1.0000   1.0000   1.0000   1.0000   1.0000
     1.0000   1.0000   1.0000   1.0000   1.0000   1.0000   1.0000   1.0000
     1.0000   1.0000   1.0000   1.0000   1.0000   1.0000   1.0000   1.0000
     1.0000   1.0000   1.0000   1.0000   1.0000   1.0000   1.0000   1.0000
     1.0000   1.0000   1.0000   1.0000   1.0000   1.0000   1.0000   1.0000
     1.0000   1.0000   1.0000   1.0000   1.0000   1.0000   1.0000   1.0000
     1.0000   0.9964   0.9168   0.8883   0.7934   0.3703   0.1503   0.0295
     0.0139   0.0075   0.0000   0.0000   0.0000   0.0000   0.0000   0.0000
     0.0000   0.0000   0.0000   0.0000   0.0000   0.0000   0.0000   0.0000
     0.0000   0.0000   0.0000   0.0000   0.0000   0.0000   0.0000   0.0000
     0.0000   0.0000   0.0000   0.0000   0.0000   0.0000   0.0000   0.0000
     0.0000   0.0000   0.0000   0.0000   0.0000   0.0000   0.0000   0.0000
     0.0000   0.0000   0.0000   0.0000   0.0000   0.0000   0.0000   0.0000
     0.0000   0.0000   0.0000   0.0000   0.0000   0.0000   0.0000   0.0000
     0.0000   0.0000   0.0000   0.0000   0.0000   0.0000   0.0000   0.0000
     0.0000

          k =-0.5000 0.0000 0.0000 ( 78550 PWs)   bands (ev):

   -80.0958 -80.0956 -80.0512 -80.0511 -80.0133 -80.0131 -80.0085 -80.0083
   -77.1238 -77.1129 -77.1129 -77.1098 -77.1097 -77.1093 -77.1092 -77.1059
   -77.0884 -77.0608 -77.0606 -77.0534 -77.0531 -77.0435 -77.0430 -46.2749
   -46.2747 -46.2257 -46.2255 -46.2222 -46.2221 -46.2121 -46.2119 -46.1763
   -46.1763 -46.1757 -46.1755 -46.1743 -46.1742 -46.1640 -46.1638 -46.1518
   -46.1516 -46.1481 -46.1479 -46.1444 -46.1442 -46.1261 -46.1260 -43.1286
   -43.1217 -43.1210 -43.1197 -43.1194 -43.1158 -43.1154 -43.1140 -43.1082
   -43.1066 -43.1065 -43.0907 -43.0841 -43.0841 -43.0795 -43.0794 -43.0757
   -43.0708 -43.0708 -43.0686 -43.0684 -43.0680 -43.0676 -43.0673 -43.0649
   -43.0646 -43.0632 -43.0604 -43.0599 -43.0591 -43.0569 -43.0567 -43.0539
   -43.0538 -43.0534 -43.0394 -43.0393 -43.0228 -43.0223 -43.0032 -43.0030
   -42.9891 -42.9886 -42.9784 -42.9781  -5.1317  -5.0915  -4.5382  -4.4769
    -4.4527  -4.4276  -4.2175  -4.1106  -4.0910  -4.0624  -3.9838  -3.9300
    -3.8356  -3.7878  -3.7809  -3.7548  -3.7458  -3.6892  -3.6651  -3.6531
    -3.5190  -3.4986  -3.4955  -3.4926  -3.4599  -3.4532  -3.4303  -3.4224
    -3.3816  -3.3405  -3.3120  -3.2865   2.5945   2.6987   2.8144   3.2264
     3.2965   3.3687   3.3818   3.3839   3.4096   3.4147   3.4647   3.4704
     3.4748   3.5374   3.6664   3.7242   3.7419   3.7835   3.8671   3.9774
     4.0283   4.0447   4.1759   4.2109   4.2192   4.2368   4.2435   4.2880
     4.2982   4.3387   4.4979   4.5155   4.5338   4.5526   4.5932   4.6122
     4.6230   4.6293   4.6636   4.6811   4.7038   4.7399   4.7808   4.7980
     4.8025   4.8145   4.8633   4.8862   4.9038   4.9327   4.9548   4.9560
     4.9602   4.9813   5.0225   5.0487   5.1062   5.1378   5.2543   5.3258
     5.3272   5.3390   5.5582   5.8297   5.8478   5.8484   5.8744   5.8783
     5.8941   5.8985   5.9133   5.9226   5.9455   5.9543   5.9808   6.0150
     6.0257   6.0766   6.2126   6.2194   6.2923   6.3313   6.3487   6.3835
     6.4014   6.4305   6.4531   6.4573   6.5059   6.5070   6.5198   6.5484
     6.6084   6.6618   6.6741   6.7721   6.7737   6.7776   6.8038   6.8326
     6.8583   6.9226   6.9460   6.9742   7.0101   7.0611   7.0980   7.1393
     7.1890   7.1943   7.2331   7.2577   7.3211   7.3221   7.3741   7.4475
     7.5337   7.5628   7.6335   7.6384   7.6594   7.6749   7.6946   7.7038
     7.7538   7.7546   7.7635   7.9236   7.9932   8.0604   8.2042   8.2126
     8.2977   8.3197   8.4352   8.5266   8.6700   8.7627   8.8626   8.8907
     8.9207   8.9354   8.9802   9.0229   9.0382   9.0904   9.1045   9.1384
     9.1946   9.2305   9.2472   9.3152   9.3286   9.3411   9.3682   9.3887
     9.4136   9.4210   9.4317   9.4590   9.4632   9.4812   9.5097   9.5189
     9.5312   9.5388   9.5703   9.5925   9.6154   9.6262   9.6870   9.6916
     9.7132   9.7369   9.7585   9.8054   9.8224   9.8921   9.9020   9.9816
    10.1648  10.3083  10.3354  10.3718  10.4223  10.5148  10.5876  10.5943
    10.6750  10.6765  10.6902  10.7205  10.7333  10.7563  10.7603  10.8013
    10.8383  10.8486  10.9284  11.0127  11.0335  11.0607  11.0783  11.1176
    11.1495  11.1880  11.2854  11.3228  11.3263  11.3320  11.3836  13.3557
    13.5850

     occupation numbers 
     1.0000   1.0000   1.0000   1.0000   1.0000   1.0000   1.0000   1.0000
     1.0000   1.0000   1.0000   1.0000   1.0000   1.0000   1.0000   1.0000
     1.0000   1.0000   1.0000   1.0000   1.0000   1.0000   1.0000   1.0000
     1.0000   1.0000   1.0000   1.0000   1.0000   1.0000   1.0000   1.0000
     1.0000   1.0000   1.0000   1.0000   1.0000   1.0000   1.0000   1.0000
     1.0000   1.0000   1.0000   1.0000   1.0000   1.0000   1.0000   1.0000
     1.0000   1.0000   1.0000   1.0000   1.0000   1.0000   1.0000   1.0000
     1.0000   1.0000   1.0000   1.0000   1.0000   1.0000   1.0000   1.0000
     1.0000   1.0000   1.0000   1.0000   1.0000   1.0000   1.0000   1.0000
     1.0000   1.0000   1.0000   1.0000   1.0000   1.0000   1.0000   1.0000
     1.0000   1.0000   1.0000   1.0000   1.0000   1.0000   1.0000   1.0000
     1.0000   1.0000   1.0000   1.0000   1.0000   1.0000   1.0000   1.0000
     1.0000   1.0000   1.0000   1.0000   1.0000   1.0000   1.0000   1.0000
     1.0000   1.0000   1.0000   1.0000   1.0000   1.0000   1.0000   1.0000
     1.0000   1.0000   1.0000   1.0000   1.0000   1.0000   1.0000   1.0000
     1.0000   1.0000   1.0000   1.0000   1.0000   1.0000   1.0000   1.0000
     1.0000   1.0000   1.0000   1.0000   1.0000   1.0000   1.0000   1.0000
     1.0000   1.0000   1.0000   1.0000   1.0000   1.0000   1.0000   1.0000
     1.0000   1.0000   1.0000   1.0000   1.0000   1.0000   1.0000   1.0000
     1.0000   1.0000   1.0000   1.0000   1.0000   1.0000   1.0000   1.0000
     1.0000   1.0000   1.0000   1.0000   1.0000   1.0000   1.0000   1.0000
     1.0000   1.0000   1.0000   1.0000   1.0000   1.0000   1.0000   1.0000
     1.0000   1.0000   1.0000   1.0000   1.0000   1.0000   1.0000   1.0000
     1.0000   1.0000   1.0000   1.0000   1.0000   1.0000   1.0000   1.0000
     1.0000   1.0000   1.0000   1.0000   1.0000   1.0000   1.0000   1.0000
     1.0000   1.0000   1.0000   1.0000   1.0000   1.0000   1.0000   1.0000
     1.0000   1.0000   1.0000   1.0000   1.0000   1.0000   1.0000   1.0000
     1.0000   1.0000   1.0000   1.0000   1.0000   1.0000   1.0000   1.0000
     1.0000   1.0000   1.0000   1.0000   1.0000   1.0000   1.0000   1.0000
     1.0000   1.0000   1.0000   1.0000   1.0000   1.0000   1.0000   1.0000
     1.0000   1.0000   1.0000   1.0000   1.0000   1.0000   1.0000   1.0000
     1.0000   1.0000   1.0000   1.0000   1.0000   1.0000   1.0000   1.0000
     1.0000   1.0000   1.0000   1.0000   1.0000   1.0000   0.9993   0.9954
     0.9763   0.9533   0.7722   0.4436   0.3229   0.0612   0.0331   0.0055
     0.0001   0.0000   0.0000   0.0000   0.0000   0.0000   0.0000   0.0000
     0.0000   0.0000   0.0000   0.0000   0.0000   0.0000   0.0000   0.0000
     0.0000   0.0000   0.0000   0.0000   0.0000   0.0000   0.0000   0.0000
     0.0000   0.0000   0.0000   0.0000   0.0000   0.0000   0.0000   0.0000
     0.0000   0.0000   0.0000   0.0000   0.0000   0.0000   0.0000   0.0000
     0.0000   0.0000   0.0000   0.0000   0.0000   0.0000   0.0000   0.0000
     0.0000   0.0000   0.0000   0.0000   0.0000   0.0000   0.0000   0.0000
     0.0000   0.0000   0.0000   0.0000   0.0000   0.0000   0.0000   0.0000
     0.0000

          k =-0.5000 0.0000 0.5000 ( 78412 PWs)   bands (ev):

   -80.0958 -80.0956 -80.0512 -80.0511 -80.0133 -80.0131 -80.0085 -80.0083
   -77.1238 -77.1129 -77.1129 -77.1098 -77.1097 -77.1093 -77.1092 -77.1059
   -77.0883 -77.0608 -77.0605 -77.0534 -77.0531 -77.0435 -77.0430 -46.2749
   -46.2747 -46.2257 -46.2254 -46.2222 -46.2221 -46.2121 -46.2119 -46.1763
   -46.1763 -46.1757 -46.1755 -46.1743 -46.1742 -46.1640 -46.1637 -46.1518
   -46.1516 -46.1481 -46.1479 -46.1444 -46.1442 -46.1261 -46.1259 -43.1285
   -43.1215 -43.1211 -43.1197 -43.1193 -43.1157 -43.1154 -43.1140 -43.1081
   -43.1066 -43.1065 -43.0906 -43.0841 -43.0841 -43.0794 -43.0793 -43.0757
   -43.0708 -43.0707 -43.0687 -43.0685 -43.0679 -43.0674 -43.0672 -43.0648
   -43.0646 -43.0631 -43.0603 -43.0599 -43.0591 -43.0569 -43.0567 -43.0538
   -43.0538 -43.0534 -43.0394 -43.0393 -43.0227 -43.0223 -43.0032 -43.0030
   -42.9891 -42.9886 -42.9784 -42.9781  -4.9469  -4.9365  -4.9083  -4.8384
    -4.3304  -4.2016  -4.1842  -4.1777  -4.1388  -4.0763  -4.0348  -3.9646
    -3.7684  -3.6856  -3.6645  -3.6595  -3.6381  -3.6188  -3.6107  -3.6009
    -3.5936  -3.5590  -3.5480  -3.5272  -3.5095  -3.4783  -3.4538  -3.4400
    -3.4131  -3.3717  -3.3326  -3.3008   2.6095   2.9659   2.9993   3.0067
     3.1256   3.3032   3.3331   3.3584   3.3775   3.4520   3.4630   3.5365
     3.5590   3.5967   3.6244   3.6395   3.7635   3.7758   3.8078   3.8266
     4.0592   4.0712   4.1041   4.1196   4.1470   4.1781   4.2107   4.2674
     4.5071   4.5489   4.5707   4.5781   4.5896   4.6004   4.6136   4.6193
     4.6261   4.6503   4.6663   4.6696   4.6829   4.6879   4.6949   4.7056
     4.7153   4.7286   4.7417   4.7716   4.8980   5.0061   5.0366   5.0551
     5.0627   5.0770   5.1099   5.1239   5.1414   5.1711   5.1781   5.2005
     5.4471   5.5084   5.5113   5.5231   5.7391   5.8588   5.8876   5.8950
     5.9102   5.9294   5.9582   5.9929   6.0005   6.0091   6.0321   6.0427
     6.0559   6.0681   6.0938   6.1339   6.1456   6.1895   6.2233   6.2236
     6.2436   6.2608   6.2993   6.3246   6.3895   6.4192   6.4462   6.4780
     6.4989   6.5169   6.5787   6.7242   6.7438   6.7832   6.8336   6.9379
     7.0454   7.0754   7.1250   7.1521   7.1595   7.1755   7.2716   7.2760
     7.3344   7.3684   7.3881   7.4024   7.4233   7.4404   7.4580   7.4679
     7.4904   7.5576   7.5620   7.5846   7.6013   7.6064   7.6305   7.8315
     7.8483   7.8843   7.9308   7.9900   8.0212   8.0364   8.0623   8.1141
     8.3611   8.3729   8.4203   8.6666   8.7985   8.8182   8.8396   8.9085
     8.9202   8.9409   8.9695   9.0148   9.0650   9.1051   9.1549   9.1694
     9.2070   9.2088   9.2463   9.2521   9.2542   9.2677   9.3089   9.3321
     9.3328   9.3801   9.4353   9.4563   9.4607   9.4899   9.5065   9.5160
     9.5222   9.5358   9.5582   9.5623   9.5757   9.5913   9.6386   9.6496
     9.6642   9.6945   9.7022   9.7272   9.7941   9.8036   9.8529   9.9357
    10.1146  10.5993  10.6168  10.6387  10.6484  10.6657  10.6693  10.6737
    10.6810  10.6899  10.6911  10.7001  10.7218  10.7519  10.7656  10.8014
    10.8052  10.8348  10.8575  10.8889  10.9112  10.9767  10.9888  11.0135
    11.0431  11.0900  11.1117  11.1573  11.2676  11.3024  11.3194  13.7324
    14.1149

     occupation numbers 
     1.0000   1.0000   1.0000   1.0000   1.0000   1.0000   1.0000   1.0000
     1.0000   1.0000   1.0000   1.0000   1.0000   1.0000   1.0000   1.0000
     1.0000   1.0000   1.0000   1.0000   1.0000   1.0000   1.0000   1.0000
     1.0000   1.0000   1.0000   1.0000   1.0000   1.0000   1.0000   1.0000
     1.0000   1.0000   1.0000   1.0000   1.0000   1.0000   1.0000   1.0000
     1.0000   1.0000   1.0000   1.0000   1.0000   1.0000   1.0000   1.0000
     1.0000   1.0000   1.0000   1.0000   1.0000   1.0000   1.0000   1.0000
     1.0000   1.0000   1.0000   1.0000   1.0000   1.0000   1.0000   1.0000
     1.0000   1.0000   1.0000   1.0000   1.0000   1.0000   1.0000   1.0000
     1.0000   1.0000   1.0000   1.0000   1.0000   1.0000   1.0000   1.0000
     1.0000   1.0000   1.0000   1.0000   1.0000   1.0000   1.0000   1.0000
     1.0000   1.0000   1.0000   1.0000   1.0000   1.0000   1.0000   1.0000
     1.0000   1.0000   1.0000   1.0000   1.0000   1.0000   1.0000   1.0000
     1.0000   1.0000   1.0000   1.0000   1.0000   1.0000   1.0000   1.0000
     1.0000   1.0000   1.0000   1.0000   1.0000   1.0000   1.0000   1.0000
     1.0000   1.0000   1.0000   1.0000   1.0000   1.0000   1.0000   1.0000
     1.0000   1.0000   1.0000   1.0000   1.0000   1.0000   1.0000   1.0000
     1.0000   1.0000   1.0000   1.0000   1.0000   1.0000   1.0000   1.0000
     1.0000   1.0000   1.0000   1.0000   1.0000   1.0000   1.0000   1.0000
     1.0000   1.0000   1.0000   1.0000   1.0000   1.0000   1.0000   1.0000
     1.0000   1.0000   1.0000   1.0000   1.0000   1.0000   1.0000   1.0000
     1.0000   1.0000   1.0000   1.0000   1.0000   1.0000   1.0000   1.0000
     1.0000   1.0000   1.0000   1.0000   1.0000   1.0000   1.0000   1.0000
     1.0000   1.0000   1.0000   1.0000   1.0000   1.0000   1.0000   1.0000
     1.0000   1.0000   1.0000   1.0000   1.0000   1.0000   1.0000   1.0000
     1.0000   1.0000   1.0000   1.0000   1.0000   1.0000   1.0000   1.0000
     1.0000   1.0000   1.0000   1.0000   1.0000   1.0000   1.0000   1.0000
     1.0000   1.0000   1.0000   1.0000   1.0000   1.0000   1.0000   1.0000
     1.0000   1.0000   1.0000   1.0000   1.0000   1.0000   1.0000   1.0000
     1.0000   1.0000   1.0000   1.0000   1.0000   1.0000   1.0000   1.0000
     1.0000   1.0000   1.0000   1.0000   1.0000   1.0000   1.0000   1.0000
     1.0000   1.0000   1.0000   1.0000   1.0000   1.0000   1.0000   1.0000
     1.0000   1.0000   1.0000   1.0000   1.0000   1.0000   0.9999   0.9874
     0.9770   0.9411   0.8338   0.5107   0.1547   0.0321   0.0020   0.0007
     0.0000   0.0000   0.0000   0.0000   0.0000   0.0000   0.0000   0.0000
     0.0000   0.0000   0.0000   0.0000   0.0000   0.0000   0.0000   0.0000
     0.0000   0.0000   0.0000   0.0000   0.0000   0.0000   0.0000   0.0000
     0.0000   0.0000   0.0000   0.0000   0.0000   0.0000   0.0000   0.0000
     0.0000   0.0000   0.0000   0.0000   0.0000   0.0000   0.0000   0.0000
     0.0000   0.0000   0.0000   0.0000   0.0000   0.0000   0.0000   0.0000
     0.0000   0.0000   0.0000   0.0000   0.0000   0.0000   0.0000   0.0000
     0.0000   0.0000   0.0000   0.0000   0.0000   0.0000   0.0000   0.0000
     0.0000

 ------ SPIN DOWN ----------


          k = 0.0000 0.0000 0.0000 ( 78517 PWs)   bands (ev):

   -80.4914 -80.4824 -80.4823 -80.4774 -80.4546 -80.4545 -80.4429 -80.4428
   -80.4264 -80.4259 -80.4044 -80.3699 -80.3696 -80.3649 -80.3647 -76.9941
   -76.9941 -76.9891 -76.9889 -76.9886 -76.9884 -76.9864 -76.9862 -46.6800
   -46.6765 -46.6764 -46.6656 -46.6655 -46.6645 -46.6584 -46.6579 -46.6526
   -46.6333 -46.6333 -46.6075 -46.6074 -46.6007 -46.6006 -46.5992 -46.5833
   -46.5831 -46.5789 -46.5786 -46.5756 -46.5755 -46.5705 -46.5683 -46.5682
   -46.5666 -46.5535 -46.5534 -46.5447 -46.5443 -46.5400 -46.5339 -46.5336
   -46.5231 -46.5200 -46.5090 -46.5088 -46.4804 -46.4799 -46.4551 -46.4550
   -46.4025 -46.4023 -46.3947 -46.3944 -43.0121 -43.0120 -43.0120 -43.0120
   -42.9987 -42.9984 -42.9966 -42.9964 -42.9922 -42.9920 -42.9917 -42.9915
   -42.9915 -42.9914 -42.9913 -42.9911 -42.9842 -42.9841 -42.9821 -42.9820
   -42.9800 -42.9797 -42.9771 -42.9769  -5.4042  -4.6814  -4.6039  -4.5990
    -4.5869  -4.5601  -4.5189  -4.1187  -3.9865  -3.9538  -3.9383  -3.9190
    -3.9058  -3.9033  -3.8797  -3.8779  -3.8566  -3.8372  -3.8244  -3.8231
    -3.7282  -3.6970  -3.6772  -3.5655  -3.5530  -3.5321  -3.4567  -3.4439
    -3.4201  -3.4009  -3.3470  -3.3421   2.1837   2.4300   2.8073   2.8309
     3.1131   3.1235   3.2360   3.2853   3.2982   3.3174   3.3364   3.4095
     3.6235   3.6325   3.6964   3.7040   3.7291   3.7300   3.7445   3.7527
     3.7602   3.7775   3.7874   3.8326   3.8785   4.1192   4.3051   4.3193
     4.3263   4.3307   4.3492   4.3505   4.3610   4.3799   4.3884   4.3909
     4.4013   4.4285   4.4379   4.4486   4.4518   4.4566   4.4758   4.4825
     4.4903   4.5056   4.5398   4.5539   4.5600   4.5697   4.5803   4.6384
     4.6445   4.6759   4.6869   4.6925   4.7061   4.7220   4.7250   4.7379
     4.7441   4.8860   4.9197   4.9458   4.9461   4.9836   4.9892   5.0915
     5.1226   5.1402   5.1709   5.2081   5.3041   5.4823   5.4978   5.4992
     5.5070   5.5356   5.5376   5.5400   5.5539   5.6566   5.6622   5.7109
     5.7265   5.7576   5.8005   5.8279   5.8518   5.8626   5.8652   5.8667
     5.8749   5.8851   5.9309   5.9506   5.9595   6.0234   6.0403   6.0423
     6.0719   6.0720   6.1300   6.1758   6.1830   6.2059   6.2211   6.2285
     6.2423   6.3145   6.4339   6.4784   6.5388   6.5850   6.5995   6.6177
     6.6198   6.6225   6.6379   6.6429   6.6528   6.6550   6.6961   6.7084
     6.7099   6.7268   6.7316   6.7881   6.8800   7.0078   7.0667   7.0714
     7.3577   7.3785   7.3861   7.4038   7.4250   7.4628   7.4816   7.5130
     7.5986   7.6457   7.6628   7.6630   7.6779   7.6845   7.7249   7.7707
     7.7830   7.8214   7.8473   7.8547   7.8580   7.9755   8.0497   8.0696
     8.3504   8.3509   8.4262   8.4486   8.4511   8.4801   8.5359   8.5459
     8.5735   8.5892   8.5997   8.6357   9.2023   9.2383   9.3008   9.3114
     9.3258   9.3322   9.3899   9.3957   9.5143   9.5253   9.6213   9.8743
     9.8848   9.8980   9.9199   9.9221   9.9384  10.1859  10.2083  10.2545
    10.2893  10.2960  10.3080  10.3143  10.3206  10.3809  10.3939  10.4211
    10.4396  10.4622  10.4898  10.5201  10.5393  10.5498  10.5629  10.5795
    10.5919  10.6116  10.6321  10.6633  10.6701  10.6952  10.7270  13.0693
    13.1548

     occupation numbers 
     1.0000   1.0000   1.0000   1.0000   1.0000   1.0000   1.0000   1.0000
     1.0000   1.0000   1.0000   1.0000   1.0000   1.0000   1.0000   1.0000
     1.0000   1.0000   1.0000   1.0000   1.0000   1.0000   1.0000   1.0000
     1.0000   1.0000   1.0000   1.0000   1.0000   1.0000   1.0000   1.0000
     1.0000   1.0000   1.0000   1.0000   1.0000   1.0000   1.0000   1.0000
     1.0000   1.0000   1.0000   1.0000   1.0000   1.0000   1.0000   1.0000
     1.0000   1.0000   1.0000   1.0000   1.0000   1.0000   1.0000   1.0000
     1.0000   1.0000   1.0000   1.0000   1.0000   1.0000   1.0000   1.0000
     1.0000   1.0000   1.0000   1.0000   1.0000   1.0000   1.0000   1.0000
     1.0000   1.0000   1.0000   1.0000   1.0000   1.0000   1.0000   1.0000
     1.0000   1.0000   1.0000   1.0000   1.0000   1.0000   1.0000   1.0000
     1.0000   1.0000   1.0000   1.0000   1.0000   1.0000   1.0000   1.0000
     1.0000   1.0000   1.0000   1.0000   1.0000   1.0000   1.0000   1.0000
     1.0000   1.0000   1.0000   1.0000   1.0000   1.0000   1.0000   1.0000
     1.0000   1.0000   1.0000   1.0000   1.0000   1.0000   1.0000   1.0000
     1.0000   1.0000   1.0000   1.0000   1.0000   1.0000   1.0000   1.0000
     1.0000   1.0000   1.0000   1.0000   1.0000   1.0000   1.0000   1.0000
     1.0000   1.0000   1.0000   1.0000   1.0000   1.0000   1.0000   1.0000
     1.0000   1.0000   1.0000   1.0000   1.0000   1.0000   1.0000   1.0000
     1.0000   1.0000   1.0000   1.0000   1.0000   1.0000   1.0000   1.0000
     1.0000   1.0000   1.0000   1.0000   1.0000   1.0000   1.0000   1.0000
     1.0000   1.0000   1.0000   1.0000   1.0000   1.0000   1.0000   1.0000
     1.0000   1.0000   1.0000   1.0000   1.0000   1.0000   1.0000   1.0000
     1.0000   1.0000   1.0000   1.0000   1.0000   1.0000   1.0000   1.0000
     1.0000   1.0000   1.0000   1.0000   1.0000   1.0000   1.0000   1.0000
     1.0000   1.0000   1.0000   1.0000   1.0000   1.0000   1.0000   1.0000
     1.0000   1.0000   1.0000   1.0000   1.0000   1.0000   1.0000   1.0000
     1.0000   1.0000   1.0000   1.0000   1.0000   1.0000   1.0000   1.0000
     1.0000   1.0000   1.0000   1.0000   1.0000   1.0000   1.0000   1.0000
     1.0000   1.0000   1.0000   1.0000   1.0000   1.0000   1.0000   1.0000
     1.0000   1.0000   1.0000   1.0000   1.0000   1.0000   1.0000   1.0000
     1.0000   1.0000   1.0000   1.0000   1.0000   1.0000   1.0000   1.0000
     1.0000   1.0000   1.0000   1.0000   1.0000   1.0000   1.0000   1.0000
     1.0000   1.0000   1.0000   1.0000   1.0000   1.0000   1.0000   1.0000
     1.0000   1.0000   1.0000   1.0000   1.0000   1.0000   1.0000   1.0000
     1.0000   1.0000   1.0000   1.0000   1.0000   1.0000   1.0000   1.0000
     1.0000   1.0000   1.0000   1.0000   0.0001   0.0000   0.0000   0.0000
     0.0000   0.0000   0.0000   0.0000   0.0000   0.0000   0.0000   0.0000
     0.0000   0.0000   0.0000   0.0000   0.0000   0.0000   0.0000   0.0000
     0.0000   0.0000   0.0000   0.0000   0.0000   0.0000   0.0000   0.0000
     0.0000   0.0000   0.0000   0.0000   0.0000   0.0000   0.0000   0.0000
     0.0000   0.0000   0.0000   0.0000   0.0000   0.0000   0.0000   0.0000
     0.0000

          k = 0.0000 0.0000-0.5000 ( 78550 PWs)   bands (ev):

   -80.4914 -80.4824 -80.4823 -80.4774 -80.4546 -80.4545 -80.4429 -80.4428
   -80.4264 -80.4259 -80.4044 -80.3699 -80.3696 -80.3649 -80.3647 -76.9941
   -76.9941 -76.9891 -76.9889 -76.9886 -76.9884 -76.9864 -76.9862 -46.6800
   -46.6765 -46.6764 -46.6656 -46.6655 -46.6645 -46.6584 -46.6579 -46.6526
   -46.6333 -46.6333 -46.6075 -46.6074 -46.6007 -46.6006 -46.5992 -46.5833
   -46.5831 -46.5789 -46.5786 -46.5756 -46.5755 -46.5705 -46.5683 -46.5682
   -46.5666 -46.5535 -46.5534 -46.5447 -46.5443 -46.5400 -46.5339 -46.5336
   -46.5232 -46.5200 -46.5090 -46.5088 -46.4804 -46.4799 -46.4551 -46.4550
   -46.4025 -46.4023 -46.3947 -46.3944 -43.0121 -43.0120 -43.0120 -43.0120
   -42.9987 -42.9984 -42.9966 -42.9964 -42.9922 -42.9920 -42.9917 -42.9915
   -42.9915 -42.9914 -42.9913 -42.9911 -42.9842 -42.9841 -42.9821 -42.9820
   -42.9800 -42.9798 -42.9771 -42.9769  -5.2124  -5.1406  -4.5799  -4.5368
    -4.5231  -4.5084  -4.3114  -4.1779  -4.1643  -4.1342  -4.0458  -3.9816
    -3.9171  -3.8508  -3.8360  -3.8129  -3.7995  -3.7858  -3.7486  -3.7442
    -3.5965  -3.5822  -3.5753  -3.5633  -3.5482  -3.5360  -3.5210  -3.4996
    -3.4683  -3.4575  -3.4142  -3.3640   2.4892   2.5518   2.6789   3.0938
     3.1381   3.1593   3.1827   3.2315   3.3141   3.3257   3.3603   3.3965
     3.4108   3.4184   3.4427   3.4902   3.5337   3.5998   3.7418   3.8114
     3.8378   3.9119   3.9291   3.9566   3.9794   4.0370   4.0620   4.0884
     4.0945   4.1168   4.1312   4.1960   4.2002   4.2365   4.2742   4.3435
     4.3933   4.4146   4.4427   4.4436   4.4565   4.4697   4.4946   4.5106
     4.5497   4.5796   4.6023   4.6063   4.6136   4.6478   4.6653   4.6701
     4.6858   4.7065   4.7593   4.7693   4.7873   4.8196   4.8330   4.8682
     4.9396   4.9952   5.0055   5.0220   5.0826   5.1165   5.1453   5.1614
     5.1671   5.1892   5.2117   5.2438   5.2601   5.3313   5.3474   5.4495
     5.4881   5.5678   5.5716   5.5974   5.6133   5.6312   5.6768   5.7012
     5.7122   5.7482   5.7684   5.7878   5.7989   5.8182   5.8449   5.8794
     5.9094   5.9241   5.9761   5.9963   6.0319   6.0422   6.0701   6.0936
     6.1222   6.1232   6.1341   6.1699   6.2038   6.2437   6.2536   6.2907
     6.3062   6.3564   6.3636   6.3676   6.3881   6.3897   6.4294   6.4452
     6.4612   6.5795   6.6364   6.6416   6.6448   6.6558   6.6846   6.7279
     6.7924   6.8245   6.8377   6.8739   6.8987   6.9259   6.9555   7.0194
     7.0776   7.1324   7.2074   7.2331   7.3615   7.3828   7.4536   7.4610
     7.6716   7.8339   7.8591   7.8605   7.8699   7.8834   7.8956   7.9033
     7.9207   7.9243   7.9384   7.9951   8.0094   8.0550   8.1143   8.2142
     8.2406   8.3216   8.4423   8.5117   8.5319   8.5541   8.5803   8.5894
     8.6260   8.7610   8.8407   8.8661   8.9266   9.0061   9.0468   9.3101
     9.3194   9.3366   9.3403   9.3779   9.3982   9.7507   9.7583   9.8085
     9.8774   9.8941   9.9203   9.9494   9.9753  10.0167  10.0183  10.0585
    10.0752  10.1007  10.1078  10.1829  10.2000  10.2524  10.2663  10.3405
    10.3790  10.3957  10.4019  10.4451  10.4701  10.5285  10.5543  10.5751
    10.6192  10.6415  10.6508  10.6641  10.6887  10.7131  10.7332  13.5085
    13.6080

     occupation numbers 
     1.0000   1.0000   1.0000   1.0000   1.0000   1.0000   1.0000   1.0000
     1.0000   1.0000   1.0000   1.0000   1.0000   1.0000   1.0000   1.0000
     1.0000   1.0000   1.0000   1.0000   1.0000   1.0000   1.0000   1.0000
     1.0000   1.0000   1.0000   1.0000   1.0000   1.0000   1.0000   1.0000
     1.0000   1.0000   1.0000   1.0000   1.0000   1.0000   1.0000   1.0000
     1.0000   1.0000   1.0000   1.0000   1.0000   1.0000   1.0000   1.0000
     1.0000   1.0000   1.0000   1.0000   1.0000   1.0000   1.0000   1.0000
     1.0000   1.0000   1.0000   1.0000   1.0000   1.0000   1.0000   1.0000
     1.0000   1.0000   1.0000   1.0000   1.0000   1.0000   1.0000   1.0000
     1.0000   1.0000   1.0000   1.0000   1.0000   1.0000   1.0000   1.0000
     1.0000   1.0000   1.0000   1.0000   1.0000   1.0000   1.0000   1.0000
     1.0000   1.0000   1.0000   1.0000   1.0000   1.0000   1.0000   1.0000
     1.0000   1.0000   1.0000   1.0000   1.0000   1.0000   1.0000   1.0000
     1.0000   1.0000   1.0000   1.0000   1.0000   1.0000   1.0000   1.0000
     1.0000   1.0000   1.0000   1.0000   1.0000   1.0000   1.0000   1.0000
     1.0000   1.0000   1.0000   1.0000   1.0000   1.0000   1.0000   1.0000
     1.0000   1.0000   1.0000   1.0000   1.0000   1.0000   1.0000   1.0000
     1.0000   1.0000   1.0000   1.0000   1.0000   1.0000   1.0000   1.0000
     1.0000   1.0000   1.0000   1.0000   1.0000   1.0000   1.0000   1.0000
     1.0000   1.0000   1.0000   1.0000   1.0000   1.0000   1.0000   1.0000
     1.0000   1.0000   1.0000   1.0000   1.0000   1.0000   1.0000   1.0000
     1.0000   1.0000   1.0000   1.0000   1.0000   1.0000   1.0000   1.0000
     1.0000   1.0000   1.0000   1.0000   1.0000   1.0000   1.0000   1.0000
     1.0000   1.0000   1.0000   1.0000   1.0000   1.0000   1.0000   1.0000
     1.0000   1.0000   1.0000   1.0000   1.0000   1.0000   1.0000   1.0000
     1.0000   1.0000   1.0000   1.0000   1.0000   1.0000   1.0000   1.0000
     1.0000   1.0000   1.0000   1.0000   1.0000   1.0000   1.0000   1.0000
     1.0000   1.0000   1.0000   1.0000   1.0000   1.0000   1.0000   1.0000
     1.0000   1.0000   1.0000   1.0000   1.0000   1.0000   1.0000   1.0000
     1.0000   1.0000   1.0000   1.0000   1.0000   1.0000   1.0000   1.0000
     1.0000   1.0000   1.0000   1.0000   1.0000   1.0000   1.0000   1.0000
     1.0000   1.0000   1.0000   1.0000   1.0000   1.0000   1.0000   1.0000
     1.0000   1.0000   1.0000   1.0000   1.0000   1.0000   1.0000   1.0000
     1.0000   1.0000   1.0000   1.0000   1.0000   1.0000   1.0000   1.0000
     1.0000   1.0000   1.0000   1.0000   1.0000   1.0000   1.0000   1.0000
     1.0000   1.0000   1.0000   1.0000   1.0000   1.0000   1.0000   1.0000
     1.0000   1.0000   0.9999   0.9991   0.9686   0.5820   0.2616   0.0000
     0.0000   0.0000   0.0000   0.0000   0.0000   0.0000   0.0000   0.0000
     0.0000   0.0000   0.0000   0.0000   0.0000   0.0000   0.0000   0.0000
     0.0000   0.0000   0.0000   0.0000   0.0000   0.0000   0.0000   0.0000
     0.0000   0.0000   0.0000   0.0000   0.0000   0.0000   0.0000   0.0000
     0.0000   0.0000   0.0000   0.0000   0.0000   0.0000   0.0000   0.0000
     0.0000

          k = 0.0000-0.5000-0.5000 ( 78412 PWs)   bands (ev):

   -80.4914 -80.4823 -80.4823 -80.4774 -80.4546 -80.4545 -80.4429 -80.4428
   -80.4264 -80.4259 -80.4044 -80.3699 -80.3696 -80.3649 -80.3647 -76.9941
   -76.9941 -76.9891 -76.9888 -76.9886 -76.9884 -76.9864 -76.9862 -46.6800
   -46.6765 -46.6764 -46.6656 -46.6654 -46.6645 -46.6584 -46.6579 -46.6526
   -46.6333 -46.6332 -46.6075 -46.6074 -46.6006 -46.6006 -46.5992 -46.5833
   -46.5831 -46.5789 -46.5786 -46.5756 -46.5755 -46.5705 -46.5683 -46.5682
   -46.5665 -46.5534 -46.5533 -46.5447 -46.5442 -46.5400 -46.5339 -46.5336
   -46.5231 -46.5200 -46.5090 -46.5088 -46.4804 -46.4799 -46.4550 -46.4550
   -46.4025 -46.4023 -46.3947 -46.3944 -43.0121 -43.0120 -43.0120 -43.0119
   -42.9987 -42.9984 -42.9966 -42.9964 -42.9922 -42.9920 -42.9917 -42.9915
   -42.9914 -42.9914 -42.9913 -42.9910 -42.9842 -42.9841 -42.9821 -42.9819
   -42.9799 -42.9797 -42.9770 -42.9769  -5.0458  -4.9708  -4.9707  -4.8933
    -4.4004  -4.2725  -4.2610  -4.2297  -4.2116  -4.1487  -4.0836  -4.0660
    -3.7897  -3.7674  -3.7606  -3.7434  -3.7347  -3.7094  -3.7008  -3.6910
    -3.6457  -3.6431  -3.6283  -3.5942  -3.5743  -3.5540  -3.5257  -3.5090
    -3.4993  -3.4787  -3.4506  -3.3742   2.5086   2.8203   2.8526   2.8528
     3.0099   3.2168   3.2460   3.2555   3.2799   3.3079   3.3336   3.3613
     3.4458   3.4630   3.4941   3.5134   3.5587   3.6186   3.6345   3.6513
     3.8372   3.8723   3.8739   3.8868   3.9300   3.9427   4.0008   4.0115
     4.0226   4.0564   4.0681   4.1534   4.1850   4.2069   4.2803   4.3611
     4.3837   4.4108   4.4340   4.4622   4.4803   4.5165   4.5465   4.5493
     4.5688   4.5856   4.5864   4.5906   4.6243   4.6324   4.6430   4.7010
     4.7198   4.7421   4.8065   4.8393   4.8477   4.8545   4.8817   4.9044
     4.9642   5.0006   5.0056   5.0309   5.0445   5.0688   5.0892   5.1150
     5.1666   5.2068   5.2383   5.2610   5.3177   5.3291   5.3657   5.4292
     5.4417   5.5769   5.5956   5.6230   5.6349   5.6519   5.6702   5.6969
     5.7062   5.7385   5.7670   5.7717   5.7970   5.8236   5.8705   5.9310
     5.9376   5.9576   5.9589   5.9968   6.0189   6.0223   6.0772   6.1148
     6.1338   6.1603   6.1714   6.1748   6.1972   6.1987   6.2124   6.2280
     6.2454   6.3076   6.3270   6.3469   6.3824   6.4378   6.4391   6.4830
     6.5042   6.5070   6.5662   6.5963   6.6748   6.6880   6.7338   6.7486
     6.7708   6.7896   6.8130   6.8291   6.8519   6.8899   7.0442   7.1121
     7.1212   7.1559   7.1563   7.1821   7.2611   7.2823   7.3921   7.4903
     7.5618   7.7686   7.7868   7.8397   7.8502   7.8822   7.8845   7.9685
     8.0710   8.1751   8.1874   8.1949   8.2263   8.2382   8.2630   8.2943
     8.3361   8.3585   8.3836   8.4487   8.5341   8.5908   8.6558   8.6589
     8.6796   8.7453   8.8194   8.8733   8.9801   8.9818   9.0193   9.4756
     9.5080   9.5200   9.5414   9.5464   9.6016   9.6439   9.6560   9.6740
     9.6908   9.6998   9.7418   9.7947   9.7989   9.8266   9.8322   9.8468
     9.8684   9.9386   9.9785  10.1890  10.2183  10.2209  10.2428  10.3423
    10.3461  10.3859  10.4025  10.4256  10.4466  10.4604  10.4752  10.4965
    10.5137  10.5292  10.5445  10.8397  10.9264  10.9657  10.9671  13.3485
    13.9895

     occupation numbers 
     1.0000   1.0000   1.0000   1.0000   1.0000   1.0000   1.0000   1.0000
     1.0000   1.0000   1.0000   1.0000   1.0000   1.0000   1.0000   1.0000
     1.0000   1.0000   1.0000   1.0000   1.0000   1.0000   1.0000   1.0000
     1.0000   1.0000   1.0000   1.0000   1.0000   1.0000   1.0000   1.0000
     1.0000   1.0000   1.0000   1.0000   1.0000   1.0000   1.0000   1.0000
     1.0000   1.0000   1.0000   1.0000   1.0000   1.0000   1.0000   1.0000
     1.0000   1.0000   1.0000   1.0000   1.0000   1.0000   1.0000   1.0000
     1.0000   1.0000   1.0000   1.0000   1.0000   1.0000   1.0000   1.0000
     1.0000   1.0000   1.0000   1.0000   1.0000   1.0000   1.0000   1.0000
     1.0000   1.0000   1.0000   1.0000   1.0000   1.0000   1.0000   1.0000
     1.0000   1.0000   1.0000   1.0000   1.0000   1.0000   1.0000   1.0000
     1.0000   1.0000   1.0000   1.0000   1.0000   1.0000   1.0000   1.0000
     1.0000   1.0000   1.0000   1.0000   1.0000   1.0000   1.0000   1.0000
     1.0000   1.0000   1.0000   1.0000   1.0000   1.0000   1.0000   1.0000
     1.0000   1.0000   1.0000   1.0000   1.0000   1.0000   1.0000   1.0000
     1.0000   1.0000   1.0000   1.0000   1.0000   1.0000   1.0000   1.0000
     1.0000   1.0000   1.0000   1.0000   1.0000   1.0000   1.0000   1.0000
     1.0000   1.0000   1.0000   1.0000   1.0000   1.0000   1.0000   1.0000
     1.0000   1.0000   1.0000   1.0000   1.0000   1.0000   1.0000   1.0000
     1.0000   1.0000   1.0000   1.0000   1.0000   1.0000   1.0000   1.0000
     1.0000   1.0000   1.0000   1.0000   1.0000   1.0000   1.0000   1.0000
     1.0000   1.0000   1.0000   1.0000   1.0000   1.0000   1.0000   1.0000
     1.0000   1.0000   1.0000   1.0000   1.0000   1.0000   1.0000   1.0000
     1.0000   1.0000   1.0000   1.0000   1.0000   1.0000   1.0000   1.0000
     1.0000   1.0000   1.0000   1.0000   1.0000   1.0000   1.0000   1.0000
     1.0000   1.0000   1.0000   1.0000   1.0000   1.0000   1.0000   1.0000
     1.0000   1.0000   1.0000   1.0000   1.0000   1.0000   1.0000   1.0000
     1.0000   1.0000   1.0000   1.0000   1.0000   1.0000   1.0000   1.0000
     1.0000   1.0000   1.0000   1.0000   1.0000   1.0000   1.0000   1.0000
     1.0000   1.0000   1.0000   1.0000   1.0000   1.0000   1.0000   1.0000
     1.0000   1.0000   1.0000   1.0000   1.0000   1.0000   1.0000   1.0000
     1.0000   1.0000   1.0000   1.0000   1.0000   1.0000   1.0000   1.0000
     1.0000   1.0000   1.0000   1.0000   1.0000   1.0000   1.0000   1.0000
     1.0000   1.0000   1.0000   1.0000   1.0000   1.0000   1.0000   1.0000
     1.0000   1.0000   1.0000   1.0000   1.0000   1.0000   1.0000   1.0000
     1.0000   1.0000   1.0000   1.0000   1.0000   1.0000   1.0000   1.0000
     1.0000   1.0000   1.0000   0.9985   0.7732   0.7620   0.4738   0.0000
     0.0000   0.0000   0.0000   0.0000   0.0000   0.0000   0.0000   0.0000
     0.0000   0.0000   0.0000   0.0000   0.0000   0.0000   0.0000   0.0000
     0.0000   0.0000   0.0000   0.0000   0.0000   0.0000   0.0000   0.0000
     0.0000   0.0000   0.0000   0.0000   0.0000   0.0000   0.0000   0.0000
     0.0000   0.0000   0.0000   0.0000   0.0000   0.0000   0.0000   0.0000
     0.0000

          k =-0.5000-0.5000-0.5000 ( 78600 PWs)   bands (ev):

   -80.4914 -80.4824 -80.4823 -80.4774 -80.4546 -80.4545 -80.4429 -80.4428
   -80.4264 -80.4259 -80.4044 -80.3699 -80.3696 -80.3649 -80.3647 -76.9941
   -76.9941 -76.9891 -76.9889 -76.9886 -76.9884 -76.9864 -76.9862 -46.6801
   -46.6765 -46.6764 -46.6656 -46.6655 -46.6645 -46.6584 -46.6579 -46.6526
   -46.6334 -46.6333 -46.6075 -46.6074 -46.6007 -46.6006 -46.5992 -46.5833
   -46.5831 -46.5789 -46.5786 -46.5756 -46.5755 -46.5705 -46.5684 -46.5682
   -46.5666 -46.5535 -46.5534 -46.5447 -46.5443 -46.5400 -46.5339 -46.5336
   -46.5232 -46.5200 -46.5090 -46.5088 -46.4804 -46.4800 -46.4551 -46.4550
   -46.4025 -46.4023 -46.3947 -46.3944 -43.0121 -43.0120 -43.0120 -43.0120
   -42.9987 -42.9985 -42.9966 -42.9964 -42.9922 -42.9920 -42.9917 -42.9915
   -42.9915 -42.9914 -42.9913 -42.9911 -42.9842 -42.9842 -42.9821 -42.9820
   -42.9800 -42.9798 -42.9771 -42.9769  -4.9132  -4.9054  -4.8655  -4.8523
    -4.6919  -4.6121  -4.5578  -4.4722  -3.9463  -3.7990  -3.7625  -3.7531
    -3.7481  -3.7390  -3.7362  -3.7286  -3.7111  -3.7093  -3.7044  -3.6963
    -3.6937  -3.6553  -3.6484  -3.6428  -3.6116  -3.6036  -3.5904  -3.5741
    -3.5239  -3.5047  -3.5011  -3.4654   2.5219   2.9098   2.9297   2.9628
     3.0311   3.1923   3.2052   3.2204   3.2695   3.2764   3.3016   3.3042
     3.3129   3.3227   3.3596   3.4455   3.6842   3.7098   3.7184   3.7328
     3.8462   3.8550   3.8625   3.8933   3.9246   3.9360   3.9630   3.9797
     4.0555   4.0662   4.0891   4.1075   4.1429   4.1833   4.3476   4.3584
     4.4577   4.5679   4.5843   4.5872   4.5929   4.5952   4.6036   4.6118
     4.6178   4.6221   4.6244   4.6279   4.6333   4.6433   4.6447   4.6498
     4.6506   4.6612   4.6615   4.6743   4.6761   4.6934   4.7228   4.7471
     4.8056   4.8274   5.0970   5.1739   5.1804   5.1990   5.2410   5.2555
     5.2616   5.2704   5.2740   5.2892   5.2941   5.3024   5.3030   5.3228
     5.3278   5.3586   5.3640   5.4595   5.5162   5.5201   5.6577   5.6930
     5.7880   5.8043   5.8263   5.8304   5.8554   5.8777   5.8809   5.9375
     5.9596   5.9752   6.0148   6.0243   6.0359   6.0379   6.0910   6.0966
     6.1065   6.1202   6.1279   6.1322   6.1490   6.1669   6.1683   6.2151
     6.2492   6.3026   6.3054   6.3219   6.3546   6.4359   6.4451   6.5164
     6.5567   6.5589   6.5721   6.6147   6.6353   6.6697   6.7206   6.7332
     6.7388   6.7628   6.7932   6.8782   6.9589   7.0622   7.0804   7.0983
     7.1069   7.1236   7.1914   7.2018   7.3022   7.3291   7.4709   7.4761
     7.5088   7.7627   7.7766   7.8021   7.8083   7.8635   7.9048   8.0039
     8.0513   8.2042   8.2149   8.2194   8.2248   8.2442   8.2513   8.2766
     8.2837   8.3183   8.3231   8.7030   8.7144   8.8082   8.8097   8.8374
     8.8503   8.8568   8.8619   8.9510   8.9833   9.1202   9.1211   9.5444
     9.5482   9.5537   9.6020   9.6046   9.6430   9.6594   9.6718   9.6723
     9.6820   9.6885   9.6973   9.7000   9.7035   9.7108   9.7371   9.7508
     9.7616   9.7641   9.7694   9.7867   9.8222   9.8661   9.9574  10.3287
    10.3747  10.3840  10.3895  10.4180  10.4341  10.4427  10.4949  10.8573
    10.8894  10.9103  10.9455  10.9685  10.9763  10.9789  11.0037  13.3817
    14.0517

     occupation numbers 
     1.0000   1.0000   1.0000   1.0000   1.0000   1.0000   1.0000   1.0000
     1.0000   1.0000   1.0000   1.0000   1.0000   1.0000   1.0000   1.0000
     1.0000   1.0000   1.0000   1.0000   1.0000   1.0000   1.0000   1.0000
     1.0000   1.0000   1.0000   1.0000   1.0000   1.0000   1.0000   1.0000
     1.0000   1.0000   1.0000   1.0000   1.0000   1.0000   1.0000   1.0000
     1.0000   1.0000   1.0000   1.0000   1.0000   1.0000   1.0000   1.0000
     1.0000   1.0000   1.0000   1.0000   1.0000   1.0000   1.0000   1.0000
     1.0000   1.0000   1.0000   1.0000   1.0000   1.0000   1.0000   1.0000
     1.0000   1.0000   1.0000   1.0000   1.0000   1.0000   1.0000   1.0000
     1.0000   1.0000   1.0000   1.0000   1.0000   1.0000   1.0000   1.0000
     1.0000   1.0000   1.0000   1.0000   1.0000   1.0000   1.0000   1.0000
     1.0000   1.0000   1.0000   1.0000   1.0000   1.0000   1.0000   1.0000
     1.0000   1.0000   1.0000   1.0000   1.0000   1.0000   1.0000   1.0000
     1.0000   1.0000   1.0000   1.0000   1.0000   1.0000   1.0000   1.0000
     1.0000   1.0000   1.0000   1.0000   1.0000   1.0000   1.0000   1.0000
     1.0000   1.0000   1.0000   1.0000   1.0000   1.0000   1.0000   1.0000
     1.0000   1.0000   1.0000   1.0000   1.0000   1.0000   1.0000   1.0000
     1.0000   1.0000   1.0000   1.0000   1.0000   1.0000   1.0000   1.0000
     1.0000   1.0000   1.0000   1.0000   1.0000   1.0000   1.0000   1.0000
     1.0000   1.0000   1.0000   1.0000   1.0000   1.0000   1.0000   1.0000
     1.0000   1.0000   1.0000   1.0000   1.0000   1.0000   1.0000   1.0000
     1.0000   1.0000   1.0000   1.0000   1.0000   1.0000   1.0000   1.0000
     1.0000   1.0000   1.0000   1.0000   1.0000   1.0000   1.0000   1.0000
     1.0000   1.0000   1.0000   1.0000   1.0000   1.0000   1.0000   1.0000
     1.0000   1.0000   1.0000   1.0000   1.0000   1.0000   1.0000   1.0000
     1.0000   1.0000   1.0000   1.0000   1.0000   1.0000   1.0000   1.0000
     1.0000   1.0000   1.0000   1.0000   1.0000   1.0000   1.0000   1.0000
     1.0000   1.0000   1.0000   1.0000   1.0000   1.0000   1.0000   1.0000
     1.0000   1.0000   1.0000   1.0000   1.0000   1.0000   1.0000   1.0000
     1.0000   1.0000   1.0000   1.0000   1.0000   1.0000   1.0000   1.0000
     1.0000   1.0000   1.0000   1.0000   1.0000   1.0000   1.0000   1.0000
     1.0000   1.0000   1.0000   1.0000   1.0000   1.0000   1.0000   1.0000
     1.0000   1.0000   1.0000   1.0000   1.0000   1.0000   1.0000   1.0000
     1.0000   1.0000   1.0000   1.0000   1.0000   1.0000   1.0000   1.0000
     1.0000   1.0000   1.0000   1.0000   1.0000   1.0000   1.0000   1.0000
     1.0000   1.0000   1.0000   1.0000   1.0000   1.0000   1.0000   0.9999
     0.9997   0.9995   0.9993   0.9119   0.7523   0.0152   0.0145   0.0000
     0.0000   0.0000   0.0000   0.0000   0.0000   0.0000   0.0000   0.0000
     0.0000   0.0000   0.0000   0.0000   0.0000   0.0000   0.0000   0.0000
     0.0000   0.0000   0.0000   0.0000   0.0000   0.0000   0.0000   0.0000
     0.0000   0.0000   0.0000   0.0000   0.0000   0.0000   0.0000   0.0000
     0.0000   0.0000   0.0000   0.0000   0.0000   0.0000   0.0000   0.0000
     0.0000

          k =-0.5000 0.0000 0.0000 ( 78550 PWs)   bands (ev):

   -80.4914 -80.4824 -80.4823 -80.4774 -80.4546 -80.4545 -80.4429 -80.4428
   -80.4264 -80.4259 -80.4044 -80.3699 -80.3696 -80.3649 -80.3647 -76.9941
   -76.9941 -76.9891 -76.9889 -76.9886 -76.9884 -76.9864 -76.9862 -46.6801
   -46.6765 -46.6764 -46.6656 -46.6655 -46.6645 -46.6584 -46.6579 -46.6526
   -46.6334 -46.6333 -46.6075 -46.6074 -46.6007 -46.6006 -46.5992 -46.5833
   -46.5831 -46.5789 -46.5786 -46.5756 -46.5755 -46.5705 -46.5683 -46.5682
   -46.5666 -46.5534 -46.5534 -46.5447 -46.5443 -46.5400 -46.5339 -46.5336
   -46.5231 -46.5200 -46.5090 -46.5088 -46.4804 -46.4799 -46.4551 -46.4550
   -46.4025 -46.4023 -46.3947 -46.3944 -43.0121 -43.0120 -43.0120 -43.0120
   -42.9987 -42.9984 -42.9966 -42.9964 -42.9922 -42.9920 -42.9917 -42.9915
   -42.9915 -42.9914 -42.9913 -42.9911 -42.9842 -42.9841 -42.9821 -42.9820
   -42.9800 -42.9798 -42.9771 -42.9769  -5.2016  -5.1546  -4.5952  -4.5410
    -4.5104  -4.4965  -4.2945  -4.1891  -4.1586  -4.1387  -4.0363  -3.9895
    -3.9068  -3.8574  -3.8516  -3.8263  -3.8188  -3.7767  -3.7446  -3.7191
    -3.5987  -3.5820  -3.5813  -3.5783  -3.5468  -3.5333  -3.5210  -3.5129
    -3.4647  -3.4393  -3.4051  -3.3665   2.4965   2.5362   2.6789   3.0813
     3.1418   3.1483   3.1531   3.2256   3.3370   3.3392   3.3925   3.4056
     3.4079   3.4172   3.4514   3.4840   3.5537   3.5955   3.7654   3.8030
     3.8053   3.9150   3.9251   3.9419   3.9799   4.0509   4.0727   4.0975
     4.1034   4.1244   4.1377   4.1545   4.2246   4.2360   4.2624   4.3204
     4.4022   4.4214   4.4301   4.4368   4.4566   4.4921   4.5110   4.5193
     4.5302   4.5750   4.5957   4.6000   4.6186   4.6520   4.6744   4.6819
     4.6976   4.7175   4.7204   4.7715   4.7763   4.8156   4.8562   4.8678
     4.9475   4.9768   5.0083   5.0456   5.0778   5.1187   5.1201   5.1376
     5.1847   5.1850   5.1995   5.2449   5.2616   5.2807   5.3356   5.4651
     5.5233   5.5524   5.6040   5.6053   5.6183   5.6413   5.6741   5.6819
     5.7117   5.7197   5.7569   5.7693   5.7938   5.7979   5.8623   5.8943
     5.9315   5.9679   5.9862   6.0003   6.0275   6.0326   6.0624   6.0693
     6.1117   6.1410   6.1540   6.1667   6.1819   6.2221   6.2645   6.2812
     6.2866   6.3098   6.3734   6.3739   6.3931   6.4292   6.4339   6.4435
     6.4787   6.5625   6.6220   6.6418   6.6539   6.6621   6.7154   6.7535
     6.8017   6.8059   6.8803   6.8820   6.8972   6.9307   6.9347   7.0248
     7.0356   7.1873   7.1897   7.2248   7.3563   7.3865   7.4516   7.4604
     7.6031   7.8004   7.8580   7.8623   7.8708   7.8927   7.8950   7.9042
     7.9069   7.9213   7.9596   7.9987   8.0250   8.0555   8.1227   8.2049
     8.2050   8.3214   8.4986   8.5243   8.5261   8.5465   8.5957   8.5980
     8.6222   8.7430   8.8409   8.8605   8.9095   9.0369   9.0419   9.3211
     9.3231   9.3392   9.3524   9.3548   9.3738   9.7588   9.7956   9.8332
     9.8926   9.9079   9.9097   9.9427   9.9485  10.0041  10.0533  10.0641
    10.0758  10.0763  10.1011  10.1967  10.2058  10.2275  10.2621  10.3257
    10.3974  10.3981  10.4053  10.4442  10.4634  10.5063  10.5591  10.5935
    10.6159  10.6323  10.6659  10.6804  10.6883  10.6903  10.7433  13.3081
    13.5556

     occupation numbers 
     1.0000   1.0000   1.0000   1.0000   1.0000   1.0000   1.0000   1.0000
     1.0000   1.0000   1.0000   1.0000   1.0000   1.0000   1.0000   1.0000
     1.0000   1.0000   1.0000   1.0000   1.0000   1.0000   1.0000   1.0000
     1.0000   1.0000   1.0000   1.0000   1.0000   1.0000   1.0000   1.0000
     1.0000   1.0000   1.0000   1.0000   1.0000   1.0000   1.0000   1.0000
     1.0000   1.0000   1.0000   1.0000   1.0000   1.0000   1.0000   1.0000
     1.0000   1.0000   1.0000   1.0000   1.0000   1.0000   1.0000   1.0000
     1.0000   1.0000   1.0000   1.0000   1.0000   1.0000   1.0000   1.0000
     1.0000   1.0000   1.0000   1.0000   1.0000   1.0000   1.0000   1.0000
     1.0000   1.0000   1.0000   1.0000   1.0000   1.0000   1.0000   1.0000
     1.0000   1.0000   1.0000   1.0000   1.0000   1.0000   1.0000   1.0000
     1.0000   1.0000   1.0000   1.0000   1.0000   1.0000   1.0000   1.0000
     1.0000   1.0000   1.0000   1.0000   1.0000   1.0000   1.0000   1.0000
     1.0000   1.0000   1.0000   1.0000   1.0000   1.0000   1.0000   1.0000
     1.0000   1.0000   1.0000   1.0000   1.0000   1.0000   1.0000   1.0000
     1.0000   1.0000   1.0000   1.0000   1.0000   1.0000   1.0000   1.0000
     1.0000   1.0000   1.0000   1.0000   1.0000   1.0000   1.0000   1.0000
     1.0000   1.0000   1.0000   1.0000   1.0000   1.0000   1.0000   1.0000
     1.0000   1.0000   1.0000   1.0000   1.0000   1.0000   1.0000   1.0000
     1.0000   1.0000   1.0000   1.0000   1.0000   1.0000   1.0000   1.0000
     1.0000   1.0000   1.0000   1.0000   1.0000   1.0000   1.0000   1.0000
     1.0000   1.0000   1.0000   1.0000   1.0000   1.0000   1.0000   1.0000
     1.0000   1.0000   1.0000   1.0000   1.0000   1.0000   1.0000   1.0000
     1.0000   1.0000   1.0000   1.0000   1.0000   1.0000   1.0000   1.0000
     1.0000   1.0000   1.0000   1.0000   1.0000   1.0000   1.0000   1.0000
     1.0000   1.0000   1.0000   1.0000   1.0000   1.0000   1.0000   1.0000
     1.0000   1.0000   1.0000   1.0000   1.0000   1.0000   1.0000   1.0000
     1.0000   1.0000   1.0000   1.0000   1.0000   1.0000   1.0000   1.0000
     1.0000   1.0000   1.0000   1.0000   1.0000   1.0000   1.0000   1.0000
     1.0000   1.0000   1.0000   1.0000   1.0000   1.0000   1.0000   1.0000
     1.0000   1.0000   1.0000   1.0000   1.0000   1.0000   1.0000   1.0000
     1.0000   1.0000   1.0000   1.0000   1.0000   1.0000   1.0000   1.0000
     1.0000   1.0000   1.0000   1.0000   1.0000   1.0000   1.0000   1.0000
     1.0000   1.0000   1.0000   1.0000   1.0000   1.0000   1.0000   1.0000
     1.0000   1.0000   1.0000   1.0000   1.0000   1.0000   1.0000   1.0000
     1.0000   1.0000   1.0000   1.0000   1.0000   1.0000   1.0000   1.0000
     1.0000   1.0000   0.9999   0.9994   0.9867   0.3324   0.2956   0.0000
     0.0000   0.0000   0.0000   0.0000   0.0000   0.0000   0.0000   0.0000
     0.0000   0.0000   0.0000   0.0000   0.0000   0.0000   0.0000   0.0000
     0.0000   0.0000   0.0000   0.0000   0.0000   0.0000   0.0000   0.0000
     0.0000   0.0000   0.0000   0.0000   0.0000   0.0000   0.0000   0.0000
     0.0000   0.0000   0.0000   0.0000   0.0000   0.0000   0.0000   0.0000
     0.0000

          k =-0.5000 0.0000 0.5000 ( 78412 PWs)   bands (ev):

   -80.4914 -80.4823 -80.4823 -80.4774 -80.4546 -80.4545 -80.4429 -80.4428
   -80.4264 -80.4259 -80.4044 -80.3699 -80.3696 -80.3649 -80.3647 -76.9941
   -76.9941 -76.9891 -76.9888 -76.9886 -76.9884 -76.9864 -76.9862 -46.6800
   -46.6765 -46.6764 -46.6656 -46.6655 -46.6645 -46.6584 -46.6579 -46.6526
   -46.6333 -46.6332 -46.6075 -46.6074 -46.6007 -46.6006 -46.5992 -46.5833
   -46.5831 -46.5789 -46.5786 -46.5756 -46.5755 -46.5705 -46.5683 -46.5682
   -46.5665 -46.5534 -46.5533 -46.5447 -46.5442 -46.5400 -46.5339 -46.5336
   -46.5231 -46.5200 -46.5090 -46.5088 -46.4804 -46.4799 -46.4550 -46.4550
   -46.4025 -46.4023 -46.3947 -46.3944 -43.0121 -43.0120 -43.0120 -43.0119
   -42.9986 -42.9984 -42.9966 -42.9964 -42.9922 -42.9920 -42.9917 -42.9915
   -42.9914 -42.9914 -42.9913 -42.9910 -42.9842 -42.9841 -42.9821 -42.9819
   -42.9799 -42.9797 -42.9770 -42.9769  -5.0124  -4.9988  -4.9781  -4.9019
    -4.3877  -4.2659  -4.2466  -4.2412  -4.2091  -4.1465  -4.1021  -4.0295
    -3.8426  -3.7791  -3.7481  -3.7451  -3.7305  -3.7059  -3.6894  -3.6819
    -3.6686  -3.6377  -3.6342  -3.5914  -3.5864  -3.5531  -3.5357  -3.5140
    -3.5040  -3.4578  -3.4206  -3.3827   2.5116   2.8247   2.8567   2.8688
     3.0253   3.2123   3.2476   3.2491   3.2906   3.3048   3.3428   3.3586
     3.3921   3.4587   3.4805   3.4974   3.5620   3.6155   3.6374   3.6715
     3.8290   3.8519   3.8726   3.8770   3.9278   3.9438   3.9489   4.0286
     4.0291   4.0661   4.0894   4.1591   4.1702   4.2115   4.2508   4.3579
     4.3695   4.4013   4.4241   4.4721   4.5169   4.5251   4.5462   4.5670
     4.5744   4.5845   4.5912   4.5968   4.6248   4.6408   4.7114   4.7214
     4.7308   4.7437   4.8001   4.8522   4.8534   4.8712   4.8882   4.9106
     4.9586   4.9745   4.9911   5.0390   5.0624   5.0689   5.0857   5.1116
     5.1571   5.2219   5.2359   5.2681   5.2898   5.3308   5.3589   5.3802
     5.4403   5.5584   5.5942   5.6150   5.6364   5.6524   5.6750   5.6993
     5.7175   5.7435   5.7494   5.7826   5.8057   5.8439   5.8713   5.9154
     5.9250   5.9443   5.9558   5.9711   6.0233   6.0383   6.0908   6.1053
     6.1289   6.1468   6.1700   6.1837   6.1913   6.1987   6.2195   6.2204
     6.2675   6.2897   6.3077   6.3436   6.4179   6.4390   6.4584   6.4790
     6.5044   6.5342   6.5539   6.5706   6.6808   6.6894   6.7516   6.7578
     6.7803   6.7826   6.8020   6.8207   6.8392   6.9153   7.0648   7.0839
     7.1177   7.1633   7.1742   7.1850   7.2602   7.3259   7.3675   7.4531
     7.5169   7.7692   7.8156   7.8339   7.8523   7.8795   7.8951   7.9618
     8.0585   8.1512   8.1548   8.1893   8.2131   8.2232   8.2626   8.2983
     8.3230   8.3898   8.4207   8.4412   8.5568   8.5920   8.6092   8.6670
     8.6713   8.7822   8.8073   8.8705   8.9712   9.0016   9.0371   9.4554
     9.5037   9.5224   9.5277   9.5888   9.6145   9.6302   9.6592   9.6805
     9.6933   9.7065   9.7308   9.7945   9.8013   9.8342   9.8451   9.8575
     9.8872   9.9018   9.9878  10.1466  10.2139  10.2238  10.2465  10.3421
    10.3697  10.3761  10.4109  10.4162  10.4577  10.4636  10.4770  10.4799
    10.5055  10.5323  10.5521  10.8634  10.9257  10.9402  10.9687  13.6569
    13.9721

     occupation numbers 
     1.0000   1.0000   1.0000   1.0000   1.0000   1.0000   1.0000   1.0000
     1.0000   1.0000   1.0000   1.0000   1.0000   1.0000   1.0000   1.0000
     1.0000   1.0000   1.0000   1.0000   1.0000   1.0000   1.0000   1.0000
     1.0000   1.0000   1.0000   1.0000   1.0000   1.0000   1.0000   1.0000
     1.0000   1.0000   1.0000   1.0000   1.0000   1.0000   1.0000   1.0000
     1.0000   1.0000   1.0000   1.0000   1.0000   1.0000   1.0000   1.0000
     1.0000   1.0000   1.0000   1.0000   1.0000   1.0000   1.0000   1.0000
     1.0000   1.0000   1.0000   1.0000   1.0000   1.0000   1.0000   1.0000
     1.0000   1.0000   1.0000   1.0000   1.0000   1.0000   1.0000   1.0000
     1.0000   1.0000   1.0000   1.0000   1.0000   1.0000   1.0000   1.0000
     1.0000   1.0000   1.0000   1.0000   1.0000   1.0000   1.0000   1.0000
     1.0000   1.0000   1.0000   1.0000   1.0000   1.0000   1.0000   1.0000
     1.0000   1.0000   1.0000   1.0000   1.0000   1.0000   1.0000   1.0000
     1.0000   1.0000   1.0000   1.0000   1.0000   1.0000   1.0000   1.0000
     1.0000   1.0000   1.0000   1.0000   1.0000   1.0000   1.0000   1.0000
     1.0000   1.0000   1.0000   1.0000   1.0000   1.0000   1.0000   1.0000
     1.0000   1.0000   1.0000   1.0000   1.0000   1.0000   1.0000   1.0000
     1.0000   1.0000   1.0000   1.0000   1.0000   1.0000   1.0000   1.0000
     1.0000   1.0000   1.0000   1.0000   1.0000   1.0000   1.0000   1.0000
     1.0000   1.0000   1.0000   1.0000   1.0000   1.0000   1.0000   1.0000
     1.0000   1.0000   1.0000   1.0000   1.0000   1.0000   1.0000   1.0000
     1.0000   1.0000   1.0000   1.0000   1.0000   1.0000   1.0000   1.0000
     1.0000   1.0000   1.0000   1.0000   1.0000   1.0000   1.0000   1.0000
     1.0000   1.0000   1.0000   1.0000   1.0000   1.0000   1.0000   1.0000
     1.0000   1.0000   1.0000   1.0000   1.0000   1.0000   1.0000   1.0000
     1.0000   1.0000   1.0000   1.0000   1.0000   1.0000   1.0000   1.0000
     1.0000   1.0000   1.0000   1.0000   1.0000   1.0000   1.0000   1.0000
     1.0000   1.0000   1.0000   1.0000   1.0000   1.0000   1.0000   1.0000
     1.0000   1.0000   1.0000   1.0000   1.0000   1.0000   1.0000   1.0000
     1.0000   1.0000   1.0000   1.0000   1.0000   1.0000   1.0000   1.0000
     1.0000   1.0000   1.0000   1.0000   1.0000   1.0000   1.0000   1.0000
     1.0000   1.0000   1.0000   1.0000   1.0000   1.0000   1.0000   1.0000
     1.0000   1.0000   1.0000   1.0000   1.0000   1.0000   1.0000   1.0000
     1.0000   1.0000   1.0000   1.0000   1.0000   1.0000   1.0000   1.0000
     1.0000   1.0000   1.0000   1.0000   1.0000   1.0000   1.0000   1.0000
     1.0000   1.0000   1.0000   1.0000   1.0000   1.0000   1.0000   1.0000
     1.0000   1.0000   1.0000   0.9988   0.8246   0.6181   0.3315   0.0000
     0.0000   0.0000   0.0000   0.0000   0.0000   0.0000   0.0000   0.0000
     0.0000   0.0000   0.0000   0.0000   0.0000   0.0000   0.0000   0.0000
     0.0000   0.0000   0.0000   0.0000   0.0000   0.0000   0.0000   0.0000
     0.0000   0.0000   0.0000   0.0000   0.0000   0.0000   0.0000   0.0000
     0.0000   0.0000   0.0000   0.0000   0.0000   0.0000   0.0000   0.0000
     0.0000

     the Fermi energy is     9.0161 ev

!    total energy              =   -6474.52264165 Ry
     estimated scf accuracy    <       0.00000667 Ry
     smearing contrib. (-TS)   =      -0.00688122 Ry
     internal energy E=F+TS    =   -6474.51576042 Ry

     The total energy is F=E-TS. E is the sum of the following terms:
     one-electron contribution =   -4179.23797710 Ry
     hartree contribution      =    2295.14165371 Ry
     xc contribution           =   -1021.23144822 Ry
     ewald contribution        =   -3569.18798882 Ry

     total magnetization       =   -25.87 Bohr mag/cell
     absolute magnetization    =    75.64 Bohr mag/cell

     convergence has been achieved in  29 iterations

     Forces acting on atoms (cartesian axes, Ry/au):

     atom    1 type  1   force =     0.00018119    0.00022590    0.00033201
     atom    2 type  1   force =    -0.00003965    0.00014913   -0.00007831
     atom    3 type  1   force =     0.00005388   -0.00002937    0.00000784
     atom    4 type  1   force =    -0.00002503   -0.00005238   -0.00010789
     atom    5 type  1   force =    -0.00005388   -0.00000784    0.00002937
     atom    6 type  1   force =    -0.00018119   -0.00033201   -0.00022590
     atom    7 type  1   force =     0.00003965    0.00007831   -0.00014913
     atom    8 type  1   force =     0.00002503    0.00010789    0.00005238
     atom    9 type  2   force =     0.00010110   -0.00001921   -0.00014719
     atom   10 type  2   force =    -0.00010110    0.00014719    0.00001921
     atom   11 type  2   force =     0.00000000   -0.00008083    0.00008083
     atom   12 type  2   force =     0.00000000   -0.00002457    0.00002457
     atom   13 type  2   force =     0.00019768    0.00005669    0.00021655
     atom   14 type  2   force =    -0.00019768   -0.00021655   -0.00005669
     atom   15 type  2   force =     0.00000000   -0.00024238    0.00024238
     atom   16 type  2   force =     0.00002574   -0.00004686    0.00008212
     atom   17 type  2   force =     0.00006246    0.00018378   -0.00023982
     atom   18 type  2   force =    -0.00002048   -0.00019963    0.00015210
     atom   19 type  2   force =    -0.00014698    0.00069807    0.00011307
     atom   20 type  2   force =    -0.00002574   -0.00008212    0.00004686
     atom   21 type  2   force =     0.00002048   -0.00015210    0.00019963
     atom   22 type  2   force =    -0.00006246    0.00023982   -0.00018378
     atom   23 type  2   force =     0.00014698   -0.00011307   -0.00069807
     atom   24 type  3   force =     0.00001933    0.00026158    0.00007459
     atom   25 type  3   force =    -0.00006144   -0.00012015   -0.00024553
     atom   26 type  3   force =     0.00005431   -0.00007129   -0.00018699
     atom   27 type  3   force =    -0.00015968   -0.00002501    0.00000048
     atom   28 type  3   force =    -0.00005431    0.00018699    0.00007129
     atom   29 type  3   force =    -0.00001933   -0.00007459   -0.00026158
     atom   30 type  3   force =     0.00006144    0.00024553    0.00012015
     atom   31 type  3   force =     0.00015968   -0.00000048    0.00002501
     atom   32 type  3   force =     0.00009490    0.00000697   -0.00010259
     atom   33 type  3   force =     0.00017373   -0.00097869   -0.00059578
     atom   34 type  3   force =     0.00006979   -0.00002071    0.00009432
     atom   35 type  3   force =    -0.00023321   -0.00010415   -0.00005491
     atom   36 type  3   force =    -0.00006979   -0.00009432    0.00002071
     atom   37 type  3   force =    -0.00009490    0.00010259   -0.00000697
     atom   38 type  3   force =    -0.00017373    0.00059578    0.00097869
     atom   39 type  3   force =     0.00023321    0.00005491    0.00010415
     atom   40 type  3   force =     0.00008562   -0.00007684    0.00012227
     atom   41 type  3   force =     0.00004717    0.00010241    0.00019936
     atom   42 type  3   force =    -0.00006036   -0.00018399   -0.00015241
     atom   43 type  3   force =     0.00033553    0.00013763   -0.00007801
     atom   44 type  3   force =     0.00000649    0.00003030   -0.00013461
     atom   45 type  3   force =     0.00007102    0.00021352    0.00002028
     atom   46 type  3   force =    -0.00000900   -0.00000141    0.00031473
     atom   47 type  3   force =     0.00007890   -0.00005643   -0.00004583
     atom   48 type  3   force =    -0.00007102   -0.00002028   -0.00021352
     atom   49 type  3   force =     0.00000900   -0.00031473    0.00000141
     atom   50 type  3   force =    -0.00000649    0.00013461   -0.00003030
     atom   51 type  3   force =    -0.00007890    0.00004583    0.00005643
     atom   52 type  3   force =     0.00006036    0.00015241    0.00018399
     atom   53 type  3   force =    -0.00008562   -0.00012227    0.00007684
     atom   54 type  3   force =    -0.00004717   -0.00019936   -0.00010241
     atom   55 type  3   force =    -0.00033553    0.00007801   -0.00013763
     atom   56 type  4   force =     0.00000000   -0.00017222    0.00017222
     The non-local contrib.  to forces
     atom    1 type  1   force =     0.00293709    0.00335329    0.00662592
     atom    2 type  1   force =    -0.00725920    0.00523563   -0.00677370
     atom    3 type  1   force =     0.00032537   -0.00489808   -0.00623357
     atom    4 type  1   force =     0.02846137    0.02507865   -0.01884536
     atom    5 type  1   force =    -0.00032537    0.00623357    0.00489808
     atom    6 type  1   force =    -0.00293709   -0.00662592   -0.00335329
     atom    7 type  1   force =     0.00725920    0.00677370   -0.00523563
     atom    8 type  1   force =    -0.02846137    0.01884536   -0.02507865
     atom    9 type  2   force =     0.00239573    0.01804583   -0.00165602
     atom   10 type  2   force =    -0.00239573    0.00165602   -0.01804583
     atom   11 type  2   force =     0.00000000   -0.01405120    0.01405120
     atom   12 type  2   force =     0.00000000   -0.00887985    0.00887985
     atom   13 type  2   force =    -0.00833695   -0.01487954   -0.01060792
     atom   14 type  2   force =     0.00833695    0.01060792    0.01487954
     atom   15 type  2   force =     0.00000000    0.00883711   -0.00883711
     atom   16 type  2   force =    -0.00371979    0.00453183    0.00441951
     atom   17 type  2   force =     0.00905150    0.01149794    0.00298915
     atom   18 type  2   force =    -0.01304767   -0.00388508    0.00504553
     atom   19 type  2   force =    -0.01873785    0.00821239   -0.02106968
     atom   20 type  2   force =     0.00371979   -0.00441951   -0.00453183
     atom   21 type  2   force =     0.01304767   -0.00504553    0.00388508
     atom   22 type  2   force =    -0.00905150   -0.00298915   -0.01149794
     atom   23 type  2   force =     0.01873785    0.02106968   -0.00821239
     atom   24 type  3   force =     0.03764440    0.03796632    0.04574874
     atom   25 type  3   force =    -0.02839845   -0.01652318    0.02906638
     atom   26 type  3   force =    -0.03143176    0.02697094   -0.03285746
     atom   27 type  3   force =     0.03618292   -0.03294126   -0.02721599
     atom   28 type  3   force =     0.03143176    0.03285746   -0.02697094
     atom   29 type  3   force =    -0.03764440   -0.04574874   -0.03796632
     atom   30 type  3   force =     0.02839845   -0.02906638    0.01652318
     atom   31 type  3   force =    -0.03618292    0.02721599    0.03294126
     atom   32 type  3   force =     0.02148797    0.02652408    0.03005196
     atom   33 type  3   force =    -0.03793997    0.01888732    0.04154068
     atom   34 type  3   force =    -0.03174032    0.03500477   -0.03092829
     atom   35 type  3   force =     0.02863948   -0.02416156   -0.03186705
     atom   36 type  3   force =     0.03174032    0.03092829   -0.03500477
     atom   37 type  3   force =    -0.02148797   -0.03005196   -0.02652408
     atom   38 type  3   force =     0.03793997   -0.04154068   -0.01888732
     atom   39 type  3   force =    -0.02863948    0.03186705    0.02416156
     atom   40 type  3   force =     0.03012341    0.02032951    0.02983283
     atom   41 type  3   force =    -0.03382855   -0.03395718    0.03272852
     atom   42 type  3   force =    -0.03114898    0.03152980   -0.02906049
     atom   43 type  3   force =    -0.04789469   -0.05071284   -0.05213108
     atom   44 type  3   force =     0.05523541    0.05293362    0.05806721
     atom   45 type  3   force =    -0.03433059   -0.03273841   -0.03253655
     atom   46 type  3   force =     0.02381836   -0.03065333    0.03258078
     atom   47 type  3   force =    -0.03227760    0.02984535    0.02991669
     atom   48 type  3   force =     0.03433059    0.03253655    0.03273841
     atom   49 type  3   force =    -0.02381836   -0.03258078    0.03065333
     atom   50 type  3   force =    -0.05523541   -0.05806721   -0.05293362
     atom   51 type  3   force =     0.03227760   -0.02991669   -0.02984535
     atom   52 type  3   force =     0.03114898    0.02906049   -0.03152980
     atom   53 type  3   force =    -0.03012341   -0.02983283   -0.02032951
     atom   54 type  3   force =     0.03382855   -0.03272852    0.03395718
     atom   55 type  3   force =     0.04789469    0.05213108    0.05071284
     atom   56 type  4   force =     0.00000000    0.00742478   -0.00742478
     The ionic contribution  to forces
     atom    1 type  1   force =     0.83220459    0.79415321    0.24188025
     atom    2 type  1   force =    -1.55956884    4.20633274   -0.95699005
     atom    3 type  1   force =     5.09441223   -1.21530371   -0.81329065
     atom    4 type  1   force =    -2.27019871   -2.91437207    3.91230088
     atom    5 type  1   force =    -5.09444981    0.81324555    1.21532956
     atom    6 type  1   force =    -0.83211569   -0.24180736   -0.79413886
     atom    7 type  1   force =     1.55957363    0.95693401   -4.20627552
     atom    8 type  1   force =     2.27009409   -3.91223464    2.91428340
     atom    9 type  2   force =     2.14814575   -0.91716541   -0.74377065
     atom   10 type  2   force =    -2.14821825    0.74392541    0.91711253
     atom   11 type  2   force =     0.00001671    1.28849582   -1.28860464
     atom   12 type  2   force =     0.00000224    0.48569141   -0.48557309
     atom   13 type  2   force =     5.18889906    4.74331885    3.08573761
     atom   14 type  2   force =    -5.18881913   -3.08588694   -4.74334587
     atom   15 type  2   force =     0.00003679   -1.13962122    1.13959307
     atom   16 type  2   force =     0.02034467   -0.24955790   -0.26598398
     atom   17 type  2   force =    -6.22641906   -4.06488033   -0.90095766
     atom   18 type  2   force =     2.17048973   -0.24388351   -1.27944035
     atom   19 type  2   force =     2.54964096    6.48709134    3.76330585
     atom   20 type  2   force =    -0.02027738    0.26605589    0.24962396
     atom   21 type  2   force =    -2.17059695    1.27934108    0.24401763
     atom   22 type  2   force =     6.22643905    0.90086838    4.06482624
     atom   23 type  2   force =    -2.54972551   -3.76332719   -6.48713026
     atom   24 type  3   force =    -0.68253666   -0.77758258   -1.50983380
     atom   25 type  3   force =     1.73498514    0.96348451   -2.49279174
     atom   26 type  3   force =     1.89728559   -2.00229785    1.86302160
     atom   27 type  3   force =    -2.43524756    1.42500510    1.44901965
     atom   28 type  3   force =    -1.89723803   -1.86300735    2.00227577
     atom   29 type  3   force =     0.68258885    1.50984200    0.77756835
     atom   30 type  3   force =    -1.73499409    2.49278968   -0.96342662
     atom   31 type  3   force =     2.43526220   -1.44901346   -1.42504652
     atom   32 type  3   force =    -0.20329565   -2.47819467   -2.86121087
     atom   33 type  3   force =     2.51434021    1.00625886    5.15447388
     atom   34 type  3   force =     1.62404445   -1.45494788    1.55612646
     atom   35 type  3   force =    -2.66084232    1.39774736    2.06847946
     atom   36 type  3   force =    -1.62402483   -1.55608914    1.45491175
     atom   37 type  3   force =     0.20331434    2.86116718    2.47817135
     atom   38 type  3   force =    -2.51433009   -5.15451587   -1.00626121
     atom   39 type  3   force =     2.66084499   -2.06848371   -1.39768096
     atom   40 type  3   force =    -3.04366778   -0.42221348   -2.89005804
     atom   41 type  3   force =     1.70752484    1.82069947   -1.33026855
     atom   42 type  3   force =     1.42068633   -1.91129541    1.46915900
     atom   43 type  3   force =     5.81259301    2.21488903    2.84005869
     atom   44 type  3   force =    -2.51878605   -2.97182835   -6.00241818
     atom   45 type  3   force =     2.93675736    0.61045551    2.63966533
     atom   46 type  3   force =    -1.40276697    2.18806640   -1.60138328
     atom   47 type  3   force =     1.13679866   -1.40584651   -1.59106786
     atom   48 type  3   force =    -2.93674110   -2.63967344   -0.61035983
     atom   49 type  3   force =     1.40273573    1.60139086   -2.18807373
     atom   50 type  3   force =     2.51872939    6.00241038    2.97180463
     atom   51 type  3   force =    -1.13680288    1.59110407    1.40590843
     atom   52 type  3   force =    -1.42072382   -1.46908019    1.91129045
     atom   53 type  3   force =     3.04366683    2.89001373    0.42223782
     atom   54 type  3   force =    -1.70750061    1.33025556   -1.82068334
     atom   55 type  3   force =    -5.81257274   -2.84008959   -2.21495129
     atom   56 type  4   force =     0.00000309   -0.65883363    0.65883382
     The local contribution  to forces
     atom    1 type  1   force =    -0.83483419   -0.79761900   -0.24855580
     atom    2 type  1   force =     1.56659639   -4.21044831    0.96289897
     atom    3 type  1   force =    -5.09320764    1.22057846    0.81853055
     atom    4 type  1   force =     2.24307016    2.89106721   -3.89228364
     atom    5 type  1   force =     5.09168758   -0.81879361   -1.21937768
     atom    6 type  1   force =     0.83526249    0.24868541    0.79680667
     atom    7 type  1   force =    -1.56590782   -0.96280639    4.21087879
     atom    8 type  1   force =    -2.24503447    3.89431338   -2.89219583
     atom    9 type  2   force =    -2.15056297    0.89980644    0.74776020
     atom   10 type  2   force =     2.15033349   -0.74442439   -0.90083285
     atom   11 type  2   force =     0.00089150   -1.27660241    1.27494014
     atom   12 type  2   force =     0.00003433   -0.47843928    0.47838456
     atom   13 type  2   force =    -5.17773464   -4.72599715   -3.07576220
     atom   14 type  2   force =     5.17997461    3.07302807    4.72693775
     atom   15 type  2   force =     0.00104979    1.13135310   -1.13160041
     atom   16 type  2   force =    -0.01640914    0.24533179    0.26274902
     atom   17 type  2   force =     6.21614149    4.05196460    0.89599949
     atom   18 type  2   force =    -2.15881418    0.24820718    1.27404096
     atom   19 type  2   force =    -2.53232914   -6.49514711   -3.74228478
     atom   20 type  2   force =     0.01668828   -0.26231964   -0.24417627
     atom   21 type  2   force =     2.15772050   -1.27561162   -0.24502421
     atom   22 type  2   force =    -6.21726139   -0.89833581   -4.05363480
     atom   23 type  2   force =     2.52919016    3.74067167    6.49281335
     atom   24 type  3   force =     0.64685536    0.74200063    1.46592772
     atom   25 type  3   force =    -1.70803399   -0.94849635    2.46500293
     atom   26 type  3   force =    -1.86722392    1.97718331   -1.83217456
     atom   27 type  3   force =     2.40111183   -1.39392789   -1.42296252
     atom   28 type  3   force =     1.86722097    1.83217890   -1.97718045
     atom   29 type  3   force =    -0.64683927   -1.46592253   -0.74200101
     atom   30 type  3   force =     1.70803045   -2.46499094    0.94851547
     atom   31 type  3   force =    -2.40110854    1.42298088    1.39391985
     atom   32 type  3   force =     0.18324277    2.45312540    2.83232706
     atom   33 type  3   force =    -2.47786671   -1.02627080   -5.19417606
     atom   34 type  3   force =    -1.59377795    1.42177168   -1.52670133
     atom   35 type  3   force =     2.63365372   -1.37525393   -2.03813141
     atom   36 type  3   force =     1.59376637    1.52669422   -1.42178621
     atom   37 type  3   force =    -0.18326127   -2.83232126   -2.45311968
     atom   38 type  3   force =     2.47788208    5.19420191    1.02627657
     atom   39 type  3   force =    -2.63364451    2.03812159    1.37527574
     atom   40 type  3   force =     3.01513601    0.40302906    2.86154903
     atom   41 type  3   force =    -1.67543728   -1.78867223    1.29947912
     atom   42 type  3   force =    -1.39147969    1.88179341   -1.44154835
     atom   43 type  3   force =    -5.76471009   -2.16630181   -2.79019708
     atom   44 type  3   force =     2.46594911    2.92099082    5.94494747
     atom   45 type  3   force =    -2.90415658   -0.57924307   -2.60887026
     atom   46 type  3   force =     1.38018578   -2.15931937    1.57090833
     atom   47 type  3   force =    -1.10615653    1.37743602    1.56291337
     atom   48 type  3   force =     2.90414737    2.60885557    0.57922686
     atom   49 type  3   force =    -1.38017275   -1.57090865    2.15932142
     atom   50 type  3   force =    -2.46594589   -5.94494003   -2.92098912
     atom   51 type  3   force =     1.10614349   -1.56291702   -1.37743821
     atom   52 type  3   force =     1.39148162    1.44154781   -1.88178593
     atom   53 type  3   force =    -3.01512839   -2.86154878   -0.40305204
     atom   54 type  3   force =     1.67543199   -1.29949612    1.78866966
     atom   55 type  3   force =     5.76470450    2.79020043    2.16630207
     atom   56 type  4   force =     0.00000084    0.65122960   -0.65123202
     The core correction contribution to forces
     atom    1 type  1   force =    -0.00009725   -0.00008713   -0.00031721
     atom    2 type  1   force =     0.00138164   -0.00028963    0.00111188
     atom    3 type  1   force =     0.00007853    0.00108609    0.00105671
     atom    4 type  1   force =    -0.00167118   -0.00203144    0.00140385
     atom    5 type  1   force =    -0.00007364   -0.00105582   -0.00109003
     atom    6 type  1   force =     0.00009585    0.00031679    0.00008978
     atom    7 type  1   force =    -0.00138387   -0.00111215    0.00028827
     atom    8 type  1   force =     0.00167748   -0.00141040    0.00203498
     atom    9 type  2   force =    -0.00008514   -0.00077705    0.00028421
     atom   10 type  2   force =     0.00008609   -0.00029502    0.00078055
     atom   11 type  2   force =    -0.00000290    0.00054883   -0.00054315
     atom   12 type  2   force =    -0.00000011    0.00063707   -0.00063689
     atom   13 type  2   force =    -0.00070356   -0.00036841    0.00053899
     atom   14 type  2   force =     0.00069624   -0.00052958    0.00036521
     atom   15 type  2   force =    -0.00000344   -0.00047698    0.00047791
     atom   16 type  2   force =     0.00031735   -0.00009376   -0.00017472
     atom   17 type  2   force =    -0.00023066    0.00115669   -0.00012500
     atom   18 type  2   force =     0.00044511    0.00008883   -0.00032790
     atom   19 type  2   force =     0.00069911    0.00086853   -0.00128011
     atom   20 type  2   force =    -0.00031833    0.00017329    0.00008971
     atom   21 type  2   force =    -0.00044127    0.00033341   -0.00009904
     atom   22 type  2   force =     0.00023417    0.00013284   -0.00115109
     atom   23 type  2   force =    -0.00068870    0.00128555   -0.00086134
     atom   24 type  3   force =    -0.00193022   -0.00202935   -0.00218708
     atom   25 type  3   force =     0.00145647    0.00127323   -0.00146584
     atom   26 type  3   force =     0.00165454   -0.00142200    0.00171853
     atom   27 type  3   force =    -0.00190623    0.00174768    0.00172379
     atom   28 type  3   force =    -0.00165434   -0.00171915    0.00142178
     atom   29 type  3   force =     0.00193051    0.00218870    0.00203148
     atom   30 type  3   force =    -0.00145613    0.00146459   -0.00127514
     atom   31 type  3   force =     0.00190549   -0.00172536   -0.00174643
     atom   32 type  3   force =    -0.00131677   -0.00148465   -0.00161652
     atom   33 type  3   force =     0.00182079    0.00028625   -0.00207409
     atom   34 type  3   force =     0.00169575   -0.00185514    0.00169254
     atom   35 type  3   force =    -0.00144119    0.00151627    0.00153505
     atom   36 type  3   force =    -0.00169482   -0.00169208    0.00185709
     atom   37 type  3   force =     0.00131773    0.00161511    0.00148321
     atom   38 type  3   force =    -0.00182109    0.00207183   -0.00028530
     atom   39 type  3   force =     0.00144040   -0.00153408   -0.00151853
     atom   40 type  3   force =    -0.00152214   -0.00133582   -0.00147523
     atom   41 type  3   force =     0.00175968    0.00181749   -0.00182562
     atom   42 type  3   force =     0.00177026   -0.00178145    0.00169894
     atom   43 type  3   force =     0.00095134    0.00251967    0.00241666
     atom   44 type  3   force =    -0.00267728   -0.00226810   -0.00129207
     atom   45 type  3   force =     0.00183121    0.00189095    0.00174696
     atom   46 type  3   force =    -0.00154083    0.00152860   -0.00168153
     atom   47 type  3   force =     0.00175082   -0.00166352   -0.00168921
     atom   48 type  3   force =    -0.00183430   -0.00174915   -0.00189334
     atom   49 type  3   force =     0.00154028    0.00168251   -0.00152985
     atom   50 type  3   force =     0.00267710    0.00129161    0.00226821
     atom   51 type  3   force =    -0.00175023    0.00169044    0.00166457
     atom   52 type  3   force =    -0.00177123   -0.00169950    0.00178129
     atom   53 type  3   force =     0.00151969    0.00147367    0.00133638
     atom   54 type  3   force =    -0.00175818    0.00182651   -0.00181629
     atom   55 type  3   force =    -0.00095127   -0.00241661   -0.00251898
     atom   56 type  4   force =     0.00000000    0.00000000    0.00000000
     The Hubbard contrib.    to forces
     atom    1 type  1   force =     0.00000000    0.00000000    0.00000000
     atom    2 type  1   force =     0.00000000    0.00000000    0.00000000
     atom    3 type  1   force =     0.00000000    0.00000000    0.00000000
     atom    4 type  1   force =     0.00000000    0.00000000    0.00000000
     atom    5 type  1   force =     0.00000000    0.00000000    0.00000000
     atom    6 type  1   force =     0.00000000    0.00000000    0.00000000
     atom    7 type  1   force =     0.00000000    0.00000000    0.00000000
     atom    8 type  1   force =     0.00000000    0.00000000    0.00000000
     atom    9 type  2   force =     0.00000000    0.00000000    0.00000000
     atom   10 type  2   force =     0.00000000    0.00000000    0.00000000
     atom   11 type  2   force =     0.00000000    0.00000000    0.00000000
     atom   12 type  2   force =     0.00000000    0.00000000    0.00000000
     atom   13 type  2   force =     0.00000000    0.00000000    0.00000000
     atom   14 type  2   force =     0.00000000    0.00000000    0.00000000
     atom   15 type  2   force =     0.00000000    0.00000000    0.00000000
     atom   16 type  2   force =     0.00000000    0.00000000    0.00000000
     atom   17 type  2   force =     0.00000000    0.00000000    0.00000000
     atom   18 type  2   force =     0.00000000    0.00000000    0.00000000
     atom   19 type  2   force =     0.00000000    0.00000000    0.00000000
     atom   20 type  2   force =     0.00000000    0.00000000    0.00000000
     atom   21 type  2   force =     0.00000000    0.00000000    0.00000000
     atom   22 type  2   force =     0.00000000    0.00000000    0.00000000
     atom   23 type  2   force =     0.00000000    0.00000000    0.00000000
     atom   24 type  3   force =     0.00000000    0.00000000    0.00000000
     atom   25 type  3   force =     0.00000000    0.00000000    0.00000000
     atom   26 type  3   force =     0.00000000    0.00000000    0.00000000
     atom   27 type  3   force =     0.00000000    0.00000000    0.00000000
     atom   28 type  3   force =     0.00000000    0.00000000    0.00000000
     atom   29 type  3   force =     0.00000000    0.00000000    0.00000000
     atom   30 type  3   force =     0.00000000    0.00000000    0.00000000
     atom   31 type  3   force =     0.00000000    0.00000000    0.00000000
     atom   32 type  3   force =     0.00000000    0.00000000    0.00000000
     atom   33 type  3   force =     0.00000000    0.00000000    0.00000000
     atom   34 type  3   force =     0.00000000    0.00000000    0.00000000
     atom   35 type  3   force =     0.00000000    0.00000000    0.00000000
     atom   36 type  3   force =     0.00000000    0.00000000    0.00000000
     atom   37 type  3   force =     0.00000000    0.00000000    0.00000000
     atom   38 type  3   force =     0.00000000    0.00000000    0.00000000
     atom   39 type  3   force =     0.00000000    0.00000000    0.00000000
     atom   40 type  3   force =     0.00000000    0.00000000    0.00000000
     atom   41 type  3   force =     0.00000000    0.00000000    0.00000000
     atom   42 type  3   force =     0.00000000    0.00000000    0.00000000
     atom   43 type  3   force =     0.00000000    0.00000000    0.00000000
     atom   44 type  3   force =     0.00000000    0.00000000    0.00000000
     atom   45 type  3   force =     0.00000000    0.00000000    0.00000000
     atom   46 type  3   force =     0.00000000    0.00000000    0.00000000
     atom   47 type  3   force =     0.00000000    0.00000000    0.00000000
     atom   48 type  3   force =     0.00000000    0.00000000    0.00000000
     atom   49 type  3   force =     0.00000000    0.00000000    0.00000000
     atom   50 type  3   force =     0.00000000    0.00000000    0.00000000
     atom   51 type  3   force =     0.00000000    0.00000000    0.00000000
     atom   52 type  3   force =     0.00000000    0.00000000    0.00000000
     atom   53 type  3   force =     0.00000000    0.00000000    0.00000000
     atom   54 type  3   force =     0.00000000    0.00000000    0.00000000
     atom   55 type  3   force =     0.00000000    0.00000000    0.00000000
     atom   56 type  4   force =     0.00000000    0.00000000    0.00000000
     The SCF correction term to forces
     atom    1 type  1   force =     0.00022873    0.00002764    0.00080024
     atom    2 type  1   force =    -0.00084422   -0.00043863   -0.00030688
     atom    3 type  1   force =    -0.00233067   -0.00088142   -0.00020836
     atom    4 type  1   force =    -0.00071755   -0.00040174   -0.00163895
     atom    5 type  1   force =     0.00233132    0.00020850    0.00088092
     atom    6 type  1   force =    -0.00022898   -0.00080035   -0.00002732
     atom    7 type  1   force =     0.00084394    0.00030688    0.00043841
     atom    8 type  1   force =     0.00071842    0.00163807    0.00040226
     atom    9 type  2   force =     0.00005728   -0.00046709   -0.00102539
     atom   10 type  2   force =    -0.00005715    0.00102391    0.00046753
     atom   11 type  2   force =    -0.00000038    0.00064541   -0.00064465
     atom   12 type  2   force =    -0.00000001    0.00099754   -0.00099762
     atom   13 type  2   force =    -0.00077042   -0.00156243   -0.00112594
     atom   14 type  2   force =     0.00076945    0.00112717    0.00156208
     atom   15 type  2   force =    -0.00000046   -0.00047200    0.00047211
     atom   16 type  2   force =    -0.00033471    0.00034929   -0.00067750
     atom   17 type  2   force =     0.00097121   -0.00041450    0.00064622
     atom   18 type  2   force =     0.00030825    0.00092532    0.00000239
     atom   19 type  2   force =    -0.00102595   -0.00150972    0.00062800
     atom   20 type  2   force =     0.00033455    0.00067728   -0.00034980
     atom   21 type  2   force =    -0.00030775   -0.00000170   -0.00092669
     atom   22 type  2   force =    -0.00097077   -0.00064520    0.00041522
     atom   23 type  2   force =     0.00102728   -0.00062733    0.00151069
     atom   24 type  3   force =     0.00002071   -0.00010008    0.00042690
     atom   25 type  3   force =    -0.00007668    0.00017877   -0.00005253
     atom   26 type  3   force =    -0.00020774   -0.00051580    0.00011427
     atom   27 type  3   force =    -0.00029205    0.00006687   -0.00055257
     atom   28 type  3   force =     0.00020771   -0.00011428    0.00051581
     atom   29 type  3   force =    -0.00002076   -0.00042691    0.00010008
     atom   30 type  3   force =     0.00007669    0.00005253   -0.00017882
     atom   31 type  3   force =     0.00029204    0.00055256   -0.00006684
     atom   32 type  3   force =    -0.00002284    0.00002690    0.00032654
     atom   33 type  3   force =    -0.00016800   -0.00013854   -0.00036898
     atom   34 type  3   force =    -0.00014767   -0.00001887   -0.00007935
     atom   35 type  3   force =    -0.00023737    0.00009026   -0.00007711
     atom   36 type  3   force =     0.00014766    0.00007932    0.00001890
     atom   37 type  3   force =     0.00002284   -0.00032651   -0.00002688
     atom   38 type  3   force =     0.00016799    0.00036900    0.00013854
     atom   39 type  3   force =     0.00023736    0.00007712   -0.00009032
     atom   40 type  3   force =     0.00001822    0.00011446    0.00025128
     atom   41 type  3   force =     0.00003868    0.00022185    0.00007173
     atom   42 type  3   force =     0.00009347   -0.00042956   -0.00036229
     atom   43 type  3   force =    -0.00059667   -0.00028745   -0.00023855
     atom   44 type  3   force =     0.00025851    0.00019097    0.00056095
     atom   45 type  3   force =    -0.00002839   -0.00011334    0.00000271
     atom   46 type  3   force =     0.00028529    0.00037263   -0.00010507
     atom   47 type  3   force =    -0.00004477    0.00020220   -0.00010154
     atom   48 type  3   force =     0.00002839   -0.00000268    0.00011329
     atom   49 type  3   force =    -0.00028528    0.00010506   -0.00037262
     atom   50 type  3   force =    -0.00025847   -0.00056094   -0.00019095
     atom   51 type  3   force =     0.00004478    0.00010151   -0.00020225
     atom   52 type  3   force =    -0.00009344    0.00036223    0.00042956
     atom   53 type  3   force =    -0.00001822   -0.00025124   -0.00011446
     atom   54 type  3   force =    -0.00003870   -0.00007171   -0.00022186
     atom   55 type  3   force =     0.00059666    0.00023857    0.00028749
     atom   56 type  4   force =    -0.00000000    0.00000552   -0.00000552

     Total force =     0.002560     Total SCF correction =     0.007541
     SCF correction compared to forces is large: reduce conv_thr to get better values

     Writing all to output data dir /workspace/greig_channel/image_04/tmp/image_04.save/ :
     XML data file, charge density, pseudopotentials, collected wavefunctions
 
     init_run     :      8.50s CPU      9.57s WALL (       1 calls)
     electrons    :    519.01s CPU    514.23s WALL (       1 calls)
     forces       :      3.90s CPU      3.70s WALL (       1 calls)

     Called by init_run:
     wfcinit      :      6.79s CPU      7.17s WALL (       1 calls)
     wfcinit:atom :      1.43s CPU      1.42s WALL (      12 calls)
     wfcinit:wfcr :      3.13s CPU      3.15s WALL (      12 calls)
     potinit      :      0.18s CPU      0.18s WALL (       1 calls)
     hinit0       :      1.19s CPU      1.09s WALL (       1 calls)

     Called by electrons:
     c_bands      :    413.15s CPU    409.70s WALL (      29 calls)
     sum_band     :     93.22s CPU     92.33s WALL (      29 calls)
     v_of_rho     :      2.01s CPU      1.58s WALL (      30 calls)
     v_h          :      0.59s CPU      0.28s WALL (      30 calls)
     v_xc         :      1.50s CPU      1.38s WALL (      31 calls)
     mix_rho      :      9.79s CPU      9.75s WALL (      29 calls)

     Called by c_bands:
     init_us_2    :     37.07s CPU     36.79s WALL (     720 calls)
     cegterg      :    311.98s CPU    309.63s WALL (     348 calls)

     Called by sum_band:
     sum_band:wei :      0.04s CPU      0.05s WALL (      29 calls)
     sum_band:loo :     91.10s CPU     90.15s WALL (      29 calls)
     sum_band:buf :     16.41s CPU     16.32s WALL (     348 calls)
     sum_band:ini :     16.25s CPU     16.10s WALL (     348 calls)

     Called by *egterg:
     cdiaghg      :     28.50s CPU     28.67s WALL (    2382 calls)
                                       27.88s GPU  (    2382 calls)
     cegterg:over :     27.43s CPU     27.37s WALL (    2034 calls)
     cegterg:upda :     48.34s CPU     48.00s WALL (    2034 calls)
     cegterg:last :      9.46s CPU      9.43s WALL (     659 calls)
     h_psi        :    182.60s CPU    180.85s WALL (    2394 calls)
     g_psi        :      1.72s CPU      1.70s WALL (    2034 calls)

     Called by h_psi:
     h_psi:calbec :      0.12s CPU      0.15s WALL (    2394 calls)
     vloc_psi     :    119.82s CPU    119.17s WALL (    2394 calls)
                                      118.37s GPU  (    2394 calls)
     add_vuspsi   :     60.34s CPU     60.02s WALL (    2394 calls)

     General routines
     calbec       :      0.11s CPU      0.14s WALL (    2442 calls)
     fft          :      0.01s CPU      0.24s WALL (     585 calls)
                                        0.05s GPU  (     585 calls)
     ffts         :      0.00s CPU      0.03s WALL (      58 calls)
                                        0.01s GPU  (      58 calls)
     fftw         :      0.58s CPU     69.42s WALL (   44374 calls)
                                       56.04s GPU  (   44374 calls)
 
     Parallel routines
 
     PWSCF        :   8m52.44s CPU   8m49.58s WALL

 
   This run was terminated on:  15: 9:17  20Sep2026            

=------------------------------------------------------------------------------=
   JOB DONE.
=------------------------------------------------------------------------------=
